Cluster Au
  1.00000 
    20.0000000000000000  0.0000000000000000  0.0000000000000000 
     0.0000000000000000 20.0000000000000000  0.0000000000000000 
     0.0000000000000000  0.0000000000000000 20.0000000000000000 
  Au
  33
Selective dynamics
Direct
  0.4465185000000000  0.5009125000000000  0.2618145000000000   T   T   T
  0.6292964999999999  0.6603950000000001  0.3132590000000000   T   T   T
  0.5449320000000000  0.5238465000000000  0.3655495000000000   T   T   T
  0.7292919999999999  0.6248560000000001  0.4129170000000000   T   T   T
  0.6114919999999999  0.4779045000000000  0.5898240000000000   T   T   T
  0.4868765000000000  0.3797020000000000  0.3100510000000000   T   T   T
  0.5013420000000000  0.7020240000000000  0.3413290000000000   T   T   T
  0.6814370000000001  0.5222320000000000  0.2899195000000000   T   T   T
  0.6542040000000000  0.5095780000000001  0.4540784999999999   T   T   T
  0.4687515000000000  0.3764110000000000  0.5937755000000000   T   T   T
  0.4862705000000000  0.3924545000000000  0.7117175000000000   T   T   T
  0.6445665000000000  0.3836185000000000  0.4052680000000000   T   T   T
  0.6386585000000000  0.4105535000000000  0.2632975000000000   T   T   T
  0.4099605000000001  0.2811800000000000  0.3892980000000000   T   T   T
  0.3721770000000000  0.3509735000000000  0.2748870000000000   T   T   T
  0.3585895000000000  0.3384100000000000  0.5048435000000000   T   T   T
  0.3528305000000000  0.2787525000000000  0.6310180000000000   T   T   T
  0.5193990000000001  0.3221830000000000  0.4752545000000000   T   T   T
  0.3338580000000000  0.4464480000000000  0.6088090000000000   T   T   T
  0.3006745000000000  0.3871485000000000  0.3874075000000000   T   T   T
  0.7377615000000000  0.4496500000000000  0.5438015000000000   T   T   T
  0.4051995000000000  0.5751090000000000  0.5922765000000000   T   T   T
  0.5414464999999999  0.6079120000000000  0.6181180000000001   T   T   T
  0.5773225000000000  0.6308860000000001  0.4427720000000000   T   T   T
  0.4730945000000000  0.7317270000000000  0.4677275000000000   T   T   T
  0.4481975000000000  0.6571070000000000  0.6790935000000000   T   T   T
  0.6733399999999999  0.6287285000000000  0.5489220000000000   T   T   T
  0.5937365000000000  0.3397500000000000  0.6242900000000000   T   T   T
  0.5677065000000000  0.2761680000000000  0.3483985000000000   T   T   T
  0.6588630000000000  0.2623860000000000  0.4584645000000000   T   T   T
  0.3458080000000000  0.6958725000000000  0.5335124999999999   T   T   T
  0.2564560000000000  0.5824095000000000  0.5497365000000001   T   T   T
  0.5000000000000000  0.5000000000000000  0.5000000000000000   F   F   F
