Cluster Au
  1.00000 
    20.0000000000000000  0.0000000000000000  0.0000000000000000 
     0.0000000000000000 20.0000000000000000  0.0000000000000000 
     0.0000000000000000  0.0000000000000000 20.0000000000000000 
  Au
  33
Selective dynamics
Direct
  0.6028605000000000  0.2715665000000000  0.4922035000000000   T   T   T
  0.2949440000000000  0.4544135000000000  0.6423460000000001   T   T   T
  0.4688325000000000  0.5800824999999999  0.3937455000000000   T   T   T
  0.6015720000000000  0.4730279999999999  0.3931550000000000   T   T   T
  0.5122400000000000  0.3829660000000000  0.3528925000000000   T   T   T
  0.5136385000000000  0.5007159999999999  0.2884755000000000   T   T   T
  0.5101100000000000  0.6341059999999999  0.5384010000000000   T   T   T
  0.4658475000000000  0.4372825000000000  0.6533270000000000   T   T   T
  0.3503620000000000  0.5717909999999999  0.3295380000000000   T   T   T
  0.3858790000000000  0.4640890000000000  0.4129040000000000   T   T   T
  0.3910460000000000  0.3106375000000000  0.3388040000000000   T   T   T
  0.3978005000000000  0.4318805000000000  0.2672615000000000   T   T   T
  0.3707280000000000  0.6265295000000000  0.4921715000000000   T   T   T
  0.3673990000000000  0.4226660000000000  0.5364639999999999   T   T   T
  0.4123670000000000  0.2487480000000000  0.5536970000000000   T   T   T
  0.3635880000000000  0.3406310000000000  0.6500570000000000   T   T   T
  0.5072530000000001  0.3235055000000000  0.6123225000000000   T   T   T
  0.4789850000000000  0.3759605000000000  0.4816239999999999   T   T   T
  0.5352120000000000  0.5735590000000000  0.6735220000000000   T   T   T
  0.4050635000000000  0.5594395000000000  0.5925180000000000   T   T   T
  0.6113810000000000  0.5933925000000000  0.4417605000000000   T   T   T
  0.6133210000000000  0.5179280000000001  0.5835555000000000   T   T   T
  0.6059400000000000  0.3937125000000000  0.5333135000000000   T   T   T
  0.2078320000000000  0.3800600000000000  0.5431360000000000   T   T   T
  0.2309845000000000  0.2429620000000000  0.4461665000000000   T   T   T
  0.3517070000000000  0.2147295000000000  0.4341750000000000   T   T   T
  0.2879980000000000  0.2678020000000000  0.5671215000000001   T   T   T
  0.2678100000000000  0.4329645000000000  0.3029225000000000   T   T   T
  0.2948355000000000  0.3662045000000000  0.4130705000000000   T   T   T
  0.4796360000000000  0.2490300000000000  0.4347065000000000   T   T   T
  0.2706080000000000  0.5543690000000000  0.5515710000000000   T   T   T
  0.2483820000000000  0.4908300000000000  0.4421015000000000   T   T   T
  0.5000000000000000  0.5000000000000000  0.5000000000000000   F   F   F
