Cluster Au
  1.00000 
    20.0000000000000000  0.0000000000000000  0.0000000000000000 
     0.0000000000000000 20.0000000000000000  0.0000000000000000 
     0.0000000000000000  0.0000000000000000 20.0000000000000000 
  Au
  26
Selective dynamics
Direct
  0.6268335000000000  0.5653520000000001  0.4911475000000000   T   T   T
  0.5047885000000000  0.5978445000000000  0.3887630000000000   T   T   T
  0.5979465000000000  0.3564375000000000  0.2640935000000000   T   T   T
  0.4027890000000000  0.3990140000000000  0.4185925000000000   T   T   T
  0.5324679999999999  0.2962750000000000  0.3772290000000000   T   T   T
  0.5391104999999999  0.4767155000000000  0.3130655000000000   T   T   T
  0.7406385000000000  0.5321750000000000  0.4265115000000000   T   T   T
  0.6354230000000001  0.5728670000000000  0.3497945000000000   T   T   T
  0.3393420000000000  0.6090160000000000  0.5923710000000000   T   T   T
  0.5904295000000001  0.5171010000000000  0.6055505000000000   T   T   T
  0.6735909999999999  0.3040365000000000  0.3774780000000000   T   T   T
  0.5577405000000000  0.3861660000000000  0.6071640000000000   T   T   T
  0.4693045000000000  0.6473614999999999  0.5113225000000000   T   T   T
  0.4261420000000000  0.6971890000000001  0.6280005000000000   T   T   T
  0.2421210000000000  0.5896755000000000  0.5070390000000000   T   T   T
  0.3444460000000000  0.5205110000000001  0.4666610000000000   T   T   T
  0.4105925000000000  0.5152995000000000  0.3424455000000000   T   T   T
  0.4485025000000000  0.3691520000000000  0.2874300000000000   T   T   T
  0.5126025000000001  0.4749455000000000  0.7144410000000000   T   T   T
  0.6877710000000000  0.4288550000000000  0.3470170000000000   T   T   T
  0.6819244999999999  0.4414850000000000  0.5270245000000000   T   T   T
  0.6257575000000000  0.3231725000000000  0.5018515000000000   T   T   T
  0.4690990000000000  0.5670350000000000  0.6367450000000000   T   T   T
  0.4910805000000000  0.3491820000000000  0.5010300000000000   T   T   T
  0.3948390000000000  0.2771765000000000  0.3879205000000000   T   T   T
  0.5000000000000000  0.5000000000000000  0.5000000000000000   F   F   F
