Cluster Au
  1.00000 
    20.0000000000000000  0.0000000000000000  0.0000000000000000 
     0.0000000000000000 20.0000000000000000  0.0000000000000000 
     0.0000000000000000  0.0000000000000000 20.0000000000000000 
  Au
  26
Selective dynamics
Direct
  0.2701945000000000  0.4400134999999999  0.4016574999999999   T   T   T
  0.3336095000000000  0.3199570000000000  0.4198200000000000   T   T   T
  0.4561585000000000  0.3834775000000000  0.2943905000000000   T   T   T
  0.5500160000000001  0.3035570000000000  0.3483305000000000   T   T   T
  0.6056140000000000  0.3882295000000000  0.4601235000000000   T   T   T
  0.3906580000000000  0.5587925000000000  0.4272075000000000   T   T   T
  0.5362895000000000  0.4593850000000000  0.3682850000000000   T   T   T
  0.5557930000000000  0.2563160000000000  0.4848510000000000   T   T   T
  0.4125195000000000  0.2054105000000000  0.4170350000000000   T   T   T
  0.3353860000000000  0.5050264999999999  0.2956795000000000   T   T   T
  0.3779090000000000  0.4456550000000000  0.5067745000000000   T   T   T
  0.3618775000000000  0.6375745000000000  0.3222170000000000   T   T   T
  0.5002795000000000  0.6802195000000000  0.2795305000000000   T   T   T
  0.3511420000000000  0.3343845000000000  0.5552245000000000   T   T   T
  0.3719680000000000  0.3336270000000000  0.1885260000000000   T   T   T
  0.4643760000000000  0.3426785000000000  0.4507160000000000   T   T   T
  0.4854750000000000  0.2420460000000000  0.2321010000000000   T   T   T
  0.4651815000000000  0.5379210000000000  0.2767170000000000   T   T   T
  0.4490600000000000  0.2291080000000000  0.5689445000000000   T   T   T
  0.3689435000000000  0.2649355000000000  0.3115760000000000   T   T   T
  0.2959555000000000  0.3766980000000000  0.2827185000000000   T   T   T
  0.6240420000000000  0.5135590000000000  0.4528120000000000   T   T   T
  0.5137465000000000  0.1249760000000000  0.5145940000000000   T   T   T
  0.4072075000000000  0.7602685000000000  0.3404175000000000   T   T   T
  0.5813284999999999  0.5819384999999999  0.3239190000000000   T   T   T
  0.5000000000000000  0.5000000000000000  0.5000000000000000   F   F   F
