Cluster Au
  1.00000 
    20.0000000000000000  0.0000000000000000  0.0000000000000000 
     0.0000000000000000 20.0000000000000000  0.0000000000000000 
     0.0000000000000000  0.0000000000000000 20.0000000000000000 
  Au
  26
Selective dynamics
Direct
  0.4756445000000000  0.6226555000000000  0.3597560000000000   T   T   T
  0.5683970000000000  0.4549724999999999  0.3208380000000000   T   T   T
  0.5994830000000000  0.5794015000000000  0.4359980000000000   T   T   T
  0.6050099999999999  0.6740735000000000  0.3423905000000000   T   T   T
  0.4972610000000001  0.3521100000000000  0.2921565000000000   T   T   T
  0.3957845000000000  0.5240145000000000  0.4168740000000000   T   T   T
  0.3646025000000000  0.5825115000000001  0.2993985000000000   T   T   T
  0.4144515000000000  0.5585530000000001  0.6210020000000001   T   T   T
  0.7153725000000000  0.6548910000000000  0.2693720000000000   T   T   T
  0.6630145000000000  0.5361555000000000  0.3205245000000000   T   T   T
  0.6644790000000000  0.6669555000000000  0.5695260000000000   T   T   T
  0.5074639999999999  0.7083260000000000  0.2552475000000000   T   T   T
  0.5442525000000000  0.6609975000000000  0.6308070000000000   T   T   T
  0.5158640000000000  0.4824885000000000  0.6611335000000000   T   T   T
  0.4324755000000000  0.6535935000000000  0.7124189999999999   T   T   T
  0.4449620000000000  0.7455720000000000  0.6024485000000001   T   T   T
  0.6035885000000001  0.5504195000000001  0.5727105000000000   T   T   T
  0.4986240000000000  0.3770995000000000  0.5601790000000000   T   T   T
  0.3763120000000000  0.4669935000000000  0.5458585000000000   T   T   T
  0.3546365000000000  0.4477485000000000  0.3055050000000000   T   T   T
  0.3707820000000000  0.3324050000000000  0.3548830000000000   T   T   T
  0.3592615000000000  0.3443905000000000  0.5949910000000000   T   T   T
  0.4451325000000000  0.2600985000000000  0.6076794999999999   T   T   T
  0.4991905000000000  0.3716430000000000  0.4262840000000000   T   T   T
  0.2594805000000000  0.3849285000000000  0.6670240000000000   T   T   T
  0.5000000000000000  0.5000000000000000  0.5000000000000000   F   F   F
