Cluster Au
  1.00000 
    20.0000000000000000  0.0000000000000000  0.0000000000000000 
     0.0000000000000000 20.0000000000000000  0.0000000000000000 
     0.0000000000000000  0.0000000000000000 20.0000000000000000 
  Au
  26
Selective dynamics
Direct
  0.4517485000000000  0.7178860000000000  0.3815350000000000   T   T   T
  0.3536745000000000  0.6433435000000001  0.5827860000000000   T   T   T
  0.3035475000000000  0.5393185000000000  0.3583470000000000   T   T   T
  0.2886495000000000  0.5475230000000000  0.5193885000000000   T   T   T
  0.4412575000000000  0.7427735000000000  0.5114575000000000   T   T   T
  0.5631524999999999  0.7722050000000000  0.4451185000000000   T   T   T
  0.5253409999999999  0.5822040000000001  0.6014890000000001   T   T   T
  0.3377270000000000  0.6668695000000000  0.4436595000000000   T   T   T
  0.2380315000000000  0.4402700000000001  0.4193470000000000   T   T   T
  0.4423375000000000  0.3487910000000000  0.5148240000000001   T   T   T
  0.4512240000000000  0.7114355000000000  0.6512830000000001   T   T   T
  0.4385309999999999  0.5701530000000000  0.3937860000000000   T   T   T
  0.3528700000000000  0.6556835000000001  0.3088350000000000   T   T   T
  0.5050779999999999  0.8302835000000000  0.6112330000000000   T   T   T
  0.2909735000000000  0.5562400000000001  0.6548425000000000   T   T   T
  0.5745899999999999  0.7181919999999999  0.5754635000000000   T   T   T
  0.4263845000000000  0.5896334999999999  0.6999270000000000   T   T   T
  0.4793525000000000  0.4613405000000000  0.6309060000000000   T   T   T
  0.3859790000000000  0.4609549999999999  0.4488584999999999   T   T   T
  0.3813775000000000  0.4617900000000000  0.7294850000000001   T   T   T
  0.3005515000000000  0.3758445000000000  0.5208900000000000   T   T   T
  0.3762110000000000  0.3435505000000000  0.6387674999999999   T   T   T
  0.1823560000000000  0.4457475000000000  0.5478125000000000   T   T   T
  0.2621525000000000  0.4224160000000000  0.6592275000000000   T   T   T
  0.5411064999999999  0.6348015000000000  0.4600300000000000   T   T   T
  0.5000000000000000  0.5000000000000000  0.5000000000000000   F   F   F
