Cluster Au
  1.00000 
    20.0000000000000000  0.0000000000000000  0.0000000000000000 
     0.0000000000000000 20.0000000000000000  0.0000000000000000 
     0.0000000000000000  0.0000000000000000 20.0000000000000000 
  Au
  26
Selective dynamics
Direct
  0.4409700000000000  0.5539910000000000  0.3371330000000000   T   T   T
  0.5239165000000000  0.4617770000000000  0.3679415000000000   T   T   T
  0.4490805000000000  0.3714150000000000  0.4295855000000001   T   T   T
  0.5875215000000000  0.6598210000000000  0.4571050000000000   T   T   T
  0.4322640000000000  0.4097355000000000  0.6873085000000000   T   T   T
  0.3486040000000000  0.4578860000000000  0.5729225000000000   T   T   T
  0.5343454999999999  0.6038715000000000  0.5844800000000000   T   T   T
  0.3966830000000000  0.5988180000000000  0.5711930000000000   T   T   T
  0.4620950000000000  0.6336445000000001  0.4543929999999999   T   T   T
  0.5002354999999999  0.7045810000000000  0.3467705000000000   T   T   T
  0.7084275000000000  0.7185920000000000  0.5574795000000000   T   T   T
  0.7274990000000000  0.6772030000000000  0.3823425000000000   T   T   T
  0.5867335000000000  0.3873705000000000  0.4855730000000000   T   T   T
  0.6099020000000001  0.6284480000000000  0.3186265000000000   T   T   T
  0.6532660000000000  0.6433044999999999  0.6475139999999999   T   T   T
  0.5561965000000000  0.5462665000000000  0.7011095000000001   T   T   T
  0.3180930000000000  0.3221850000000000  0.6461140000000001   T   T   T
  0.5457860000000000  0.4259590000000000  0.6089230000000000   T   T   T
  0.3986085000000000  0.2906725000000000  0.7554250000000000   T   T   T
  0.3708870000000000  0.5216165000000000  0.6978435000000001   T   T   T
  0.3434090000000000  0.3286595000000000  0.5071325000000000   T   T   T
  0.3728715000000000  0.4773740000000000  0.4409130000000000   T   T   T
  0.5464300000000000  0.2847045000000000  0.3935085000000000   T   T   T
  0.6631104999999999  0.2709275000000000  0.4293500000000000   T   T   T
  0.3950515000000000  0.2523405000000000  0.3983990000000000   T   T   T
  0.5000000000000000  0.5000000000000000  0.5000000000000000   F   F   F
