Cluster Au
  1.00000 
    20.0000000000000000  0.0000000000000000  0.0000000000000000 
     0.0000000000000000 20.0000000000000000  0.0000000000000000 
     0.0000000000000000  0.0000000000000000 20.0000000000000000 
  Au
  18
Selective dynamics
Direct
  0.4358335000000000  0.6181800000000000  0.5264715000000000   T   T   T
  0.5791394999999999  0.4947860000000001  0.3382470000000000   T   T   T
  0.5037640000000000  0.6124085000000000  0.2866015000000000   T   T   T
  0.5518419999999999  0.6070405000000000  0.4165870000000000   T   T   T
  0.7753224999999999  0.6171845000000000  0.3881985000000000   T   T   T
  0.5315280000000000  0.3756330000000000  0.5298805000000000   T   T   T
  0.3478100000000000  0.6788190000000001  0.6131915000000000   T   T   T
  0.5833739999999999  0.3794880000000000  0.4024770000000000   T   T   T
  0.5711325000000000  0.6105620000000000  0.5543560000000001   T   T   T
  0.6732985000000000  0.6301285000000000  0.4692010000000000   T   T   T
  0.7626060000000000  0.5669980000000000  0.2472330000000000   T   T   T
  0.6520990000000000  0.5950314999999999  0.3096880000000000   T   T   T
  0.6092000000000000  0.3797115000000000  0.2762240000000000   T   T   T
  0.4412450000000000  0.5161035000000000  0.3680740000000000   T   T   T
  0.4091275000000000  0.4152715000000000  0.4450520000000000   T   T   T
  0.3329545000000000  0.5536515000000000  0.5848895000000000   T   T   T
  0.2875750000000000  0.4376920000000000  0.5415034999999999   T   T   T
  0.5000000000000000  0.5000000000000000  0.5000000000000000   F   F   F
