Cluster Au
  1.00000 
    20.0000000000000000  0.0000000000000000  0.0000000000000000 
     0.0000000000000000 20.0000000000000000  0.0000000000000000 
     0.0000000000000000  0.0000000000000000 20.0000000000000000 
  Au
  18
Selective dynamics
Direct
  0.7867325000000001  0.3756480000000000  0.7125640000000000   T   T   T
  0.6847175000000000  0.4490315000000000  0.7397960000000000   T   T   T
  0.6686569999999999  0.3259310000000000  0.4904665000000000   T   T   T
  0.4097370000000000  0.5934554999999999  0.4324465000000000   T   T   T
  0.4659235000000000  0.4816385000000000  0.3675325000000000   T   T   T
  0.5200850000000000  0.5179810000000000  0.6278430000000000   T   T   T
  0.5975165000000000  0.4254340000000000  0.5647905000000000   T   T   T
  0.4239695000000000  0.4168800000000000  0.2604095000000000   T   T   T
  0.5460705000000000  0.3899085000000000  0.3024725000000000   T   T   T
  0.5583345000000000  0.3965020000000000  0.4376055000000000   T   T   T
  0.5541430000000001  0.4469785000000000  0.7515520000000000   T   T   T
  0.6234355000000000  0.3040775000000000  0.3583305000000000   T   T   T
  0.5363290000000001  0.6513115000000000  0.6391435000000001   T   T   T
  0.6076175000000000  0.5763855000000000  0.7348855000000001   T   T   T
  0.6322854999999999  0.7097760000000000  0.7379575000000000   T   T   T
  0.4481080000000001  0.6094335000000000  0.5560200000000000   T   T   T
  0.6907230000000000  0.3496315000000000  0.6237790000000001   T   T   T
  0.5000000000000000  0.5000000000000000  0.5000000000000000   F   F   F
