Cluster Au
  1.00000 
    20.0000000000000000  0.0000000000000000  0.0000000000000000 
     0.0000000000000000 20.0000000000000000  0.0000000000000000 
     0.0000000000000000  0.0000000000000000 20.0000000000000000 
  Au
  18
Selective dynamics
Direct
  0.3331560000000000  0.5448725000000000  0.4280910000000001   T   T   T
  0.5373820000000000  0.6181504999999999  0.4943470000000000   T   T   T
  0.4675589999999999  0.7277475000000000  0.4326480000000000   T   T   T
  0.5184605000000000  0.5339030000000000  0.3873570000000000   T   T   T
  0.4277485000000000  0.4218570000000000  0.2754125000000000   T   T   T
  0.5696380000000001  0.2624980000000000  0.3177145000000000   T   T   T
  0.5865720000000000  0.6969529999999999  0.5870080000000000   T   T   T
  0.6059555000000000  0.5327620000000000  0.5504295000000000   T   T   T
  0.3947125000000000  0.3591555000000000  0.5107714999999999   T   T   T
  0.4556034999999999  0.4984815000000000  0.6166475000000000   T   T   T
  0.4145370000000000  0.5927819999999999  0.5517985000000001   T   T   T
  0.2816795000000000  0.4297585000000000  0.2999250000000000   T   T   T
  0.3486240000000000  0.3241850000000000  0.2893195000000000   T   T   T
  0.4549724999999999  0.4207780000000000  0.4231525000000000   T   T   T
  0.5919130000000000  0.4432785000000000  0.4476840000000000   T   T   T
  0.5558770000000000  0.2896940000000000  0.4806855000000000   T   T   T
  0.4977050000000000  0.3957155000000000  0.5705515000000000   T   T   T
  0.5000000000000000  0.5000000000000000  0.5000000000000000   F   F   F
