Cluster Au
  1.00000 
    20.0000000000000000  0.0000000000000000  0.0000000000000000 
     0.0000000000000000 20.0000000000000000  0.0000000000000000 
     0.0000000000000000  0.0000000000000000 20.0000000000000000 
  Au
  18
Selective dynamics
Direct
  0.6389665000000000  0.5699410000000000  0.5316885000000000   T   T   T
  0.6438620000000000  0.4292040000000000  0.2845370000000000   T   T   T
  0.4279560000000000  0.5829200000000000  0.4199280000000000   T   T   T
  0.7113535000000000  0.5564505000000000  0.3045310000000000   T   T   T
  0.5465110000000000  0.4074695000000000  0.3745555000000000   T   T   T
  0.6210479999999999  0.6543545000000000  0.3169205000000000   T   T   T
  0.7690170000000001  0.6753385000000000  0.3350040000000000   T   T   T
  0.7947900000000000  0.4632385000000000  0.4009745000000000   T   T   T
  0.6281855000000001  0.5179009999999999  0.4019965000000000   T   T   T
  0.7065465000000000  0.4490930000000000  0.5024145000000000   T   T   T
  0.4343450000000000  0.4480415000000000  0.3097665000000000   T   T   T
  0.6799100000000000  0.3643600000000000  0.4034500000000000   T   T   T
  0.4854765000000000  0.6511479999999999  0.3006455000000000   T   T   T
  0.5493790000000000  0.6356900000000001  0.4591645000000000   T   T   T
  0.6932419999999999  0.6626230000000000  0.4457035000000000   T   T   T
  0.5764899999999999  0.3806290000000000  0.4997170000000000   T   T   T
  0.5416955000000000  0.5284030000000000  0.2586540000000000   T   T   T
  0.5000000000000000  0.5000000000000000  0.5000000000000000   F   F   F
