Cluster Au
  1.00000 
    20.0000000000000000  0.0000000000000000  0.0000000000000000 
     0.0000000000000000 20.0000000000000000  0.0000000000000000 
     0.0000000000000000  0.0000000000000000 20.0000000000000000 
  Au
  10
Selective dynamics
Direct
  0.7389660000000000  0.6028534999999999  0.3982210000000000   T   T   T
  0.5507615000000000  0.4374925000000000  0.3492750000000000   T   T   T
  0.6194450000000000  0.5307065000000000  0.4325685000000000   T   T   T
  0.4340435000000000  0.5891335000000000  0.2427445000000000   T   T   T
  0.4824620000000001  0.5523450000000001  0.3619950000000000   T   T   T
  0.5519594999999999  0.5368570000000000  0.2389880000000000   T   T   T
  0.6897305000000000  0.5103215000000000  0.3050350000000000   T   T   T
  0.3924370000000000  0.4973120000000000  0.4425015000000000   T   T   T
  0.6340650000000000  0.4568234999999999  0.1789695000000000   T   T   T
  0.5000000000000000  0.5000000000000000  0.5000000000000000   F   F   F
