Cluster Au
  1.00000 
    20.0000000000000000  0.0000000000000000  0.0000000000000000 
     0.0000000000000000 20.0000000000000000  0.0000000000000000 
     0.0000000000000000  0.0000000000000000 20.0000000000000000 
  Au
  10
Selective dynamics
Direct
  0.3780955000000000  0.5563860000000000  0.6795950000000001   T   T   T
  0.5038585000000000  0.5624105000000000  0.6410630000000000   T   T   T
  0.5060385000000001  0.6062025000000000  0.3906800000000000   T   T   T
  0.6278490000000000  0.6619435000000000  0.4169450000000000   T   T   T
  0.3731660000000000  0.5617820000000000  0.5217265000000000   T   T   T
  0.5607395000000001  0.6132540000000000  0.5298470000000000   T   T   T
  0.4210540000000000  0.5048720000000000  0.3923010000000000   T   T   T
  0.3020180000000000  0.6354885000000000  0.5904845000000000   T   T   T
  0.4683570000000000  0.5560805000000000  0.7704655000000000   T   T   T
  0.5000000000000000  0.5000000000000000  0.5000000000000000   F   F   F
