Cluster Au
  1.00000 
    20.0000000000000000  0.0000000000000000  0.0000000000000000 
     0.0000000000000000 20.0000000000000000  0.0000000000000000 
     0.0000000000000000  0.0000000000000000 20.0000000000000000 
  Au
  10
Selective dynamics
Direct
  0.5832290000000000  0.4804815000000000  0.2722280000000000   T   T   T
  0.5650275000000000  0.4521010000000000  0.4046445000000000   T   T   T
  0.5719179999999999  0.5906979999999999  0.3834005000000000   T   T   T
  0.6864790000000001  0.5070640000000000  0.3580670000000000   T   T   T
  0.4174435000000000  0.5644405000000000  0.5733575000000000   T   T   T
  0.5133380000000000  0.7118955000000000  0.3798955000000000   T   T   T
  0.5759510000000000  0.3453170000000000  0.2876170000000000   T   T   T
  0.5198195000000000  0.3676285000000000  0.4873330000000000   T   T   T
  0.4667745000000000  0.6358870000000000  0.4812410000000000   T   T   T
  0.5000000000000000  0.5000000000000000  0.5000000000000000   F   F   F
