Cluster Au
  1.00000 
    20.0000000000000000  0.0000000000000000  0.0000000000000000 
     0.0000000000000000 20.0000000000000000  0.0000000000000000 
     0.0000000000000000  0.0000000000000000 20.0000000000000000 
  Au
  10
Selective dynamics
Direct
  0.6260005000000000  0.5599380000000000  0.4843720000000000   T   T   T
  0.4195170000000000  0.5502255000000000  0.4270145000000000   T   T   T
  0.6425300000000000  0.4360410000000000  0.5031095000000000   T   T   T
  0.5274989999999999  0.4079065000000000  0.4118960000000000   T   T   T
  0.4587015000000000  0.3211540000000000  0.4954519999999999   T   T   T
  0.7448340000000000  0.3332250000000000  0.5053045000000000   T   T   T
  0.6383835000000000  0.6919590000000000  0.4504710000000000   T   T   T
  0.5980019999999999  0.3146770000000000  0.4846690000000000   T   T   T
  0.5141980000000000  0.6466840000000000  0.4219035000000000   T   T   T
  0.5000000000000000  0.5000000000000000  0.5000000000000000   F   F   F
