Cluster Au
  1.00000 
    20.0000000000000000  0.0000000000000000  0.0000000000000000 
     0.0000000000000000 20.0000000000000000  0.0000000000000000 
     0.0000000000000000  0.0000000000000000 20.0000000000000000 
  Au
  10
Selective dynamics
Direct
  0.4201210000000000  0.3746280000000000  0.5177880000000000   T   T   T
  0.3893425000000000  0.5654520000000000  0.4787530000000000   T   T   T
  0.4601479999999999  0.5230145000000000  0.3836785000000000   T   T   T
  0.4940140000000001  0.3957075000000000  0.6317765000000000   T   T   T
  0.2378675000000000  0.5441155000000000  0.4852570000000000   T   T   T
  0.4474475000000000  0.4457515000000000  0.7489755000000000   T   T   T
  0.4112615000000000  0.5037160000000001  0.6268265000000001   T   T   T
  0.3201875000000000  0.4567380000000000  0.5491385000000000   T   T   T
  0.4156780000000000  0.3899340000000000  0.3871250000000000   T   T   T
  0.5000000000000000  0.5000000000000000  0.5000000000000000   F   F   F
