Cluster Au
  1.00000 
    20.0000000000000000  0.0000000000000000  0.0000000000000000 
     0.0000000000000000 20.0000000000000000  0.0000000000000000 
     0.0000000000000000  0.0000000000000000 20.0000000000000000 
  Au
  10
Selective dynamics
Direct
  0.5302425000000001  0.4775455000000000  0.2942805000000000   T   T   T
  0.5803265000000000  0.4374095000000000  0.4230745000000000   T   T   T
  0.5721075000000000  0.5825709999999999  0.4000415000000000   T   T   T
  0.6554685000000000  0.5073970000000000  0.3337615000000000   T   T   T
  0.4227775000000000  0.5972489999999999  0.5263675000000000   T   T   T
  0.5372225000000000  0.7521610000000000  0.3563145000000000   T   T   T
  0.5855319999999999  0.3686815000000000  0.2477555000000000   T   T   T
  0.5600020000000000  0.3187235000000000  0.4658950000000000   T   T   T
  0.4858725000000000  0.6578535000000000  0.4288430000000000   T   T   T
  0.5000000000000000  0.5000000000000000  0.5000000000000000   F   F   F
