Cluster Au
  1.00000 
    20.0000000000000000  0.0000000000000000  0.0000000000000000 
     0.0000000000000000 20.0000000000000000  0.0000000000000000 
     0.0000000000000000  0.0000000000000000 20.0000000000000000 
  Au
  14
Selective dynamics
Direct
  0.5222089999999999  0.4430355000000000  0.6246900000000000   T   T   T
  0.6169520000000001  0.4258970000000000  0.5298290000000000   T   T   T
  0.4222885000000000  0.3088070000000000  0.5827130000000000   T   T   T
  0.4415985000000000  0.5246100000000000  0.3763550000000000   T   T   T
  0.5620565000000000  0.4548565000000000  0.3851360000000000   T   T   T
  0.4830360000000000  0.2999880000000000  0.7001200000000000   T   T   T
  0.4122350000000000  0.2243400000000000  0.4809565000000000   T   T   T
  0.3643985000000000  0.4324695000000000  0.4384950000000000   T   T   T
  0.3170445000000000  0.3232460000000000  0.5014465000000000   T   T   T
  0.5641725000000000  0.3081685000000000  0.5960610000000000   T   T   T
  0.6865105000000000  0.4129430000000000  0.4131615000000000   T   T   T
  0.6339370000000000  0.3033610000000000  0.4735145000000000   T   T   T
  0.5407485000000001  0.2058675000000000  0.5021895000000000   T   T   T
  0.5000000000000000  0.5000000000000000  0.5000000000000000   F   F   F
