Cluster Au
  1.00000 
    20.0000000000000000  0.0000000000000000  0.0000000000000000 
     0.0000000000000000 20.0000000000000000  0.0000000000000000 
     0.0000000000000000  0.0000000000000000 20.0000000000000000 
  Au
  14
Selective dynamics
Direct
  0.5983850000000001  0.7420370000000001  0.5026925000000000   T   T   T
  0.6840165000000000  0.4313860000000000  0.6191270000000000   T   T   T
  0.5917760000000001  0.4050775000000000  0.5268060000000000   T   T   T
  0.7013365000000000  0.6648125000000000  0.4590850000000000   T   T   T
  0.7236740000000000  0.4259855000000000  0.4929674999999999   T   T   T
  0.7780954999999999  0.5414540000000000  0.4579435000000000   T   T   T
  0.5906750000000000  0.5246655000000000  0.5971925000000000   T   T   T
  0.7836909999999999  0.4536795000000000  0.7068575000000000   T   T   T
  0.8137195000000000  0.4907835000000000  0.5807930000000000   T   T   T
  0.7664515000000000  0.6182155000000000  0.3456370000000000   T   T   T
  0.7159405000000000  0.5602425000000000  0.6616965000000000   T   T   T
  0.6506860000000000  0.6460905000000000  0.5896515000000000   T   T   T
  0.5742340000000000  0.6068320000000000  0.4751760000000000   T   T   T
  0.5000000000000000  0.5000000000000000  0.5000000000000000   F   F   F
