Cluster Au
  1.00000 
    20.0000000000000000  0.0000000000000000  0.0000000000000000 
     0.0000000000000000 20.0000000000000000  0.0000000000000000 
     0.0000000000000000  0.0000000000000000 20.0000000000000000 
  Au
  14
Selective dynamics
Direct
  0.5723365000000000  0.7150835000000000  0.5609705000000000   T   T   T
  0.5704040000000000  0.6786185000000000  0.7135214999999999   T   T   T
  0.4654915000000000  0.7528190000000000  0.6387699999999999   T   T   T
  0.6531955000000000  0.6777305000000000  0.4401920000000000   T   T   T
  0.5937315000000000  0.5814985000000000  0.5136280000000000   T   T   T
  0.7319625000000001  0.5891925000000000  0.3030105000000000   T   T   T
  0.7531975000000000  0.5847105000000000  0.4736230000000000   T   T   T
  0.7043805000000000  0.4848695000000000  0.3872855000000000   T   T   T
  0.6770710000000000  0.4570150000000000  0.5157230000000000   T   T   T
  0.7201850000000001  0.4210635000000000  0.6601910000000000   T   T   T
  0.6919160000000000  0.3062885000000000  0.6796615000000000   T   T   T
  0.5326670000000000  0.3196330000000000  0.6097945000000000   T   T   T
  0.4077210000000000  0.2869760000000000  0.6911715000000000   T   T   T
  0.5000000000000000  0.5000000000000000  0.5000000000000000   F   F   F
