Cluster Au
  1.00000 
    20.0000000000000000  0.0000000000000000  0.0000000000000000 
     0.0000000000000000 20.0000000000000000  0.0000000000000000 
     0.0000000000000000  0.0000000000000000 20.0000000000000000 
  Au
  13
Selective dynamics
Direct
  0.3675025000000000  0.4032265000000000  0.7121769999999999   T   T   T
  0.4098515000000000  0.5845265000000001  0.5599879999999999   T   T   T
  0.3558335000000000  0.4775635000000000  0.4820940000000000   T   T   T
  0.4370680000000000  0.4453735000000000  0.6057235000000001   T   T   T
  0.3395030000000000  0.5332460000000000  0.6669349999999999   T   T   T
  0.2930115000000000  0.4209675000000000  0.5899664999999999   T   T   T
  0.2258925000000000  0.5146065000000000  0.5218895000000000   T   T   T
  0.2386975000000000  0.4476250000000001  0.7124785000000000   T   T   T
  0.4290515000000000  0.5793030000000000  0.4132749999999999   T   T   T
  0.2838265000000000  0.6263805000000000  0.5882520000000000   T   T   T
  0.1841555000000000  0.6447425000000000  0.4966235000000000   T   T   T
  0.3066105000000000  0.6087095000000000  0.4484994999999999   T   T   T
  0.5000000000000000  0.5000000000000000  0.5000000000000000   F   F   F
