Cluster Au
  1.00000 
    20.0000000000000000  0.0000000000000000  0.0000000000000000 
     0.0000000000000000 20.0000000000000000  0.0000000000000000 
     0.0000000000000000  0.0000000000000000 20.0000000000000000 
  Au
  13
Selective dynamics
Direct
  0.5083150000000000  0.4593540000000000  0.3334320000000000   T   T   T
  0.5185545000000000  0.4113595000000000  0.5889645000000000   T   T   T
  0.6084825000000000  0.3752850000000000  0.4570005000000000   T   T   T
  0.6212865000000000  0.3645290000000000  0.6293590000000000   T   T   T
  0.3980215000000000  0.4010330000000000  0.3729520000000000   T   T   T
  0.4243600000000000  0.5653665000000000  0.3358450000000000   T   T   T
  0.3684310000000000  0.6872835000000000  0.2596665000000000   T   T   T
  0.4740060000000000  0.6943345000000000  0.3247610000000000   T   T   T
  0.5970745000000000  0.2644585000000000  0.7048765000000000   T   T   T
  0.4788645000000000  0.6562574999999999  0.6155865000000000   T   T   T
  0.5157740000000001  0.5411400000000001  0.6307145000000001   T   T   T
  0.5088195000000000  0.6148385000000001  0.4268425000000000   T   T   T
  0.5000000000000000  0.5000000000000000  0.5000000000000000   F   F   F
