Cluster Au
  1.00000 
    20.0000000000000000  0.0000000000000000  0.0000000000000000 
     0.0000000000000000 20.0000000000000000  0.0000000000000000 
     0.0000000000000000  0.0000000000000000 20.0000000000000000 
  Au
  16
Selective dynamics
Direct
  0.4027505000000000  0.6222120000000000  0.5522330000000000   T   T   T
  0.5535380000000000  0.6011110000000001  0.5849135000000001   T   T   T
  0.6014170000000000  0.6226060000000000  0.7030090000000000   T   T   T
  0.4999455000000000  0.4550225000000000  0.7024520000000000   T   T   T
  0.3855600000000000  0.4146759999999999  0.6630890000000000   T   T   T
  0.4820150000000000  0.6159715000000000  0.4528460000000000   T   T   T
  0.6292475000000000  0.6545850000000000  0.4433180000000000   T   T   T
  0.3049540000000000  0.5246069999999999  0.6055659999999999   T   T   T
  0.7176365000000000  0.7284600000000000  0.4223630000000000   T   T   T
  0.2966200000000000  0.6036545000000000  0.4676355000000000   T   T   T
  0.3855050000000000  0.4387830000000000  0.5151825000000000   T   T   T
  0.3969060000000000  0.5261930000000000  0.3635365000000000   T   T   T
  0.4238900000000000  0.6684585000000001  0.2373760000000000   T   T   T
  0.4921820000000000  0.7034024999999999  0.3540365000000000   T   T   T
  0.5647140000000000  0.5926890000000000  0.3055290000000000   T   T   T
  0.5000000000000000  0.5000000000000000  0.5000000000000000   F   F   F
