Cluster Au
  1.00000 
    20.0000000000000000  0.0000000000000000  0.0000000000000000 
     0.0000000000000000 20.0000000000000000  0.0000000000000000 
     0.0000000000000000  0.0000000000000000 20.0000000000000000 
  Au
  16
Selective dynamics
Direct
  0.4783175000000000  0.5790664999999999  0.3682145000000000   T   T   T
  0.5430135000000000  0.3897795000000000  0.4436170000000000   T   T   T
  0.5084390000000000  0.3315605000000000  0.3279650000000000   T   T   T
  0.5301250000000000  0.4687240000000000  0.3111665000000000   T   T   T
  0.7554649999999999  0.4171035000000000  0.4146115000000000   T   T   T
  0.7606905000000000  0.3637150000000000  0.2874445000000000   T   T   T
  0.7382665000000000  0.5492890000000000  0.4336755000000000   T   T   T
  0.4245595000000000  0.4526250000000000  0.3969410000000000   T   T   T
  0.6168215000000000  0.5794215000000000  0.3267050000000000   T   T   T
  0.6717495000000000  0.4654730000000000  0.2838225000000000   T   T   T
  0.6427805000000000  0.4782705000000000  0.4865320000000000   T   T   T
  0.6594260000000001  0.3321745000000000  0.4929090000000000   T   T   T
  0.5509204999999999  0.6906850000000000  0.3587185000000000   T   T   T
  0.5885715000000000  0.5979840000000001  0.4625740000000000   T   T   T
  0.6448270000000000  0.3450600000000000  0.3577745000000000   T   T   T
  0.5000000000000000  0.5000000000000000  0.5000000000000000   F   F   F
