Cluster Au
  1.00000 
    20.0000000000000000  0.0000000000000000  0.0000000000000000 
     0.0000000000000000 20.0000000000000000  0.0000000000000000 
     0.0000000000000000  0.0000000000000000 20.0000000000000000 
  Au
  16
Selective dynamics
Direct
  0.2915590000000000  0.4744505000000000  0.4943920000000001   T   T   T
  0.5035935000000000  0.7629095000000000  0.4361500000000000   T   T   T
  0.3750765000000000  0.5643724999999999  0.5268230000000000   T   T   T
  0.4739440000000000  0.6353320000000000  0.4754375000000000   T   T   T
  0.4685035000000000  0.6167480000000001  0.6115554999999999   T   T   T
  0.5718455000000000  0.6752530000000000  0.6661895000000000   T   T   T
  0.6257010000000001  0.4439345000000000  0.5295550000000000   T   T   T
  0.6304080000000000  0.5581055000000000  0.4518259999999999   T   T   T
  0.6380445000000000  0.5483374999999999  0.3136765000000000   T   T   T
  0.6437655000000000  0.4253725000000000  0.3895045000000000   T   T   T
  0.6011215000000000  0.5734605000000000  0.5860050000000000   T   T   T
  0.6006925000000000  0.7029190000000000  0.5062840000000000   T   T   T
  0.6008835000000000  0.6669055000000000  0.3789380000000000   T   T   T
  0.4077270000000001  0.4084105000000000  0.4731820000000000   T   T   T
  0.5256915000000000  0.3673440000000000  0.4534800000000000   T   T   T
  0.5000000000000000  0.5000000000000000  0.5000000000000000   F   F   F
