Cluster Au
  1.00000 
    20.0000000000000000  0.0000000000000000  0.0000000000000000 
     0.0000000000000000 20.0000000000000000  0.0000000000000000 
     0.0000000000000000  0.0000000000000000 20.0000000000000000 
  Au
  16
Selective dynamics
Direct
  0.4305530000000000  0.3875270000000000  0.5385050000000000   T   T   T
  0.7582985000000000  0.5706990000000001  0.0936970000000000   T   T   T
  0.6978995000000000  0.3365590000000000  0.2389980000000000   T   T   T
  0.7101895000000000  0.4498900000000000  0.3156620000000000   T   T   T
  0.6040180000000001  0.4629785000000000  0.4056765000000001   T   T   T
  0.6503350000000000  0.5550250000000000  0.3253175000000000   T   T   T
  0.5709185000000000  0.6450015000000000  0.2589650000000000   T   T   T
  0.7362795000000000  0.5150465000000000  0.2093230000000000   T   T   T
  0.5183575000000000  0.5856505000000001  0.3728440000000000   T   T   T
  0.6825460000000000  0.6276235000000000  0.1813250000000000   T   T   T
  0.5009270000000000  0.3806910000000000  0.4207820000000000   T   T   T
  0.4736970000000000  0.3004020000000000  0.3224140000000000   T   T   T
  0.5846735000000000  0.3627695000000000  0.2991260000000000   T   T   T
  0.4123230000000001  0.2743245000000000  0.4564530000000001   T   T   T
  0.4311300000000000  0.6119275000000000  0.4627125000000000   T   T   T
  0.5000000000000000  0.5000000000000000  0.5000000000000000   F   F   F
