Cluster Au
  1.00000 
    20.0000000000000000  0.0000000000000000  0.0000000000000000 
     0.0000000000000000 20.0000000000000000  0.0000000000000000 
     0.0000000000000000  0.0000000000000000 20.0000000000000000 
  Au
  16
Selective dynamics
Direct
  0.5038990000000000  0.6291660000000000  0.5643355000000000   T   T   T
  0.3984510000000000  0.5186870000000000  0.5801350000000001   T   T   T
  0.5721505000000000  0.4144640000000000  0.6763475000000000   T   T   T
  0.6638045000000000  0.4433270000000000  0.5415435000000001   T   T   T
  0.5456060000000000  0.3757670000000000  0.5429305000000000   T   T   T
  0.5239255000000000  0.5334950000000001  0.6509060000000000   T   T   T
  0.5573724999999999  0.6992790000000000  0.4677515000000000   T   T   T
  0.6128000000000000  0.4386425000000000  0.4132939999999999   T   T   T
  0.7421430000000000  0.5731060000000000  0.5613680000000000   T   T   T
  0.6379604999999999  0.6553675000000000  0.5832795000000000   T   T   T
  0.6153065000000000  0.5589295000000000  0.4925340000000000   T   T   T
  0.4372680000000000  0.3741765000000000  0.6491344999999999   T   T   T
  0.5355595000000000  0.2805040000000000  0.6419200000000000   T   T   T
  0.3276850000000000  0.4310835000000000  0.6384130000000000   T   T   T
  0.6688875000000001  0.3309415000000000  0.3656105000000000   T   T   T
  0.5000000000000000  0.5000000000000000  0.5000000000000000   F   F   F
