Cluster Au
  1.00000 
    20.0000000000000000  0.0000000000000000  0.0000000000000000 
     0.0000000000000000 20.0000000000000000  0.0000000000000000 
     0.0000000000000000  0.0000000000000000 20.0000000000000000 
  Au
  21
Selective dynamics
Direct
  0.5078440000000000  0.4405990000000000  0.1923530000000000   T   T   T
  0.3605325000000000  0.4971815000000001  0.2987470000000000   T   T   T
  0.6179815000000000  0.5313625000000000  0.1796980000000000   T   T   T
  0.5143760000000001  0.3290225000000000  0.2697100000000000   T   T   T
  0.4612160000000000  0.5578355000000000  0.3710015000000000   T   T   T
  0.6305315000000000  0.4438090000000000  0.2732455000000000   T   T   T
  0.3943900000000000  0.4459205000000000  0.4219905000000000   T   T   T
  0.6047865000000000  0.4636555000000001  0.4056145000000000   T   T   T
  0.5687510000000000  0.5981799999999999  0.4302704999999999   T   T   T
  0.5736749999999999  0.6498980000000001  0.3039910000000000   T   T   T
  0.4670635000000000  0.5620620000000000  0.2333120000000000   T   T   T
  0.6156035000000000  0.3409660000000000  0.3664195000000000   T   T   T
  0.7408420000000000  0.5317865000000001  0.2318285000000000   T   T   T
  0.6706425000000000  0.5665390000000000  0.3411825000000000   T   T   T
  0.6844815000000000  0.6564815000000001  0.2201160000000000   T   T   T
  0.5545960000000000  0.6581085000000000  0.1713305000000000   T   T   T
  0.3244995000000000  0.3609875000000000  0.4935225000000000   T   T   T
  0.2923205000000000  0.3754110000000000  0.3574370000000000   T   T   T
  0.3866055000000000  0.3781855000000000  0.2361860000000000   T   T   T
  0.2612290000000000  0.4281485000000000  0.2376810000000000   T   T   T
  0.5000000000000000  0.5000000000000000  0.5000000000000000   F   F   F
