Cluster Au
  1.00000 
    20.0000000000000000  0.0000000000000000  0.0000000000000000 
     0.0000000000000000 20.0000000000000000  0.0000000000000000 
     0.0000000000000000  0.0000000000000000 20.0000000000000000 
  Au
  21
Selective dynamics
Direct
  0.5148610000000000  0.4825920000000000  0.6677355000000000   T   T   T
  0.6383525000000000  0.4919780000000000  0.7159155000000000   T   T   T
  0.5325385000000000  0.3488770000000000  0.4845430000000001   T   T   T
  0.6630980000000000  0.3512710000000000  0.4863945000000000   T   T   T
  0.6364855000000000  0.5159540000000000  0.4223169999999999   T   T   T
  0.4160370000000000  0.6125075000000000  0.6987764999999999   T   T   T
  0.2408725000000000  0.5486480000000000  0.7164325000000000   T   T   T
  0.3648595000000000  0.4810350000000000  0.6789640000000000   T   T   T
  0.3825245000000000  0.5639345000000000  0.5254670000000000   T   T   T
  0.6335155000000000  0.5024070000000000  0.5887910000000000   T   T   T
  0.4975050000000000  0.5967395000000000  0.5979605000000000   T   T   T
  0.3142735000000000  0.5053975000000001  0.4351140000000000   T   T   T
  0.2718745000000000  0.5327155000000000  0.5784880000000000   T   T   T
  0.4544625000000000  0.2825625000000000  0.3944770000000000   T   T   T
  0.6793660000000000  0.3290925000000000  0.3541505000000000   T   T   T
  0.4357750000000000  0.3968700000000000  0.7542875000000000   T   T   T
  0.4099465000000000  0.5901950000000000  0.3845440000000000   T   T   T
  0.5641725000000000  0.5313234999999999  0.3060655000000000   T   T   T
  0.4288920000000000  0.5263774999999999  0.2653560000000000   T   T   T
  0.5192495000000000  0.6202920000000000  0.4464390000000000   T   T   T
  0.5000000000000000  0.5000000000000000  0.5000000000000000   F   F   F
