Cluster Au
  1.00000 
    20.0000000000000000  0.0000000000000000  0.0000000000000000 
     0.0000000000000000 20.0000000000000000  0.0000000000000000 
     0.0000000000000000  0.0000000000000000 20.0000000000000000 
  Au
  21
Selective dynamics
Direct
  0.5433635000000000  0.4976220000000000  0.3570085000000000   T   T   T
  0.5208190000000000  0.3801410000000000  0.4165355000000000   T   T   T
  0.6619235000000000  0.4750664999999999  0.4402675000000000   T   T   T
  0.5138815000000000  0.6479000000000000  0.5272735000000000   T   T   T
  0.6475605000000000  0.3268965000000000  0.4332515000000000   T   T   T
  0.7899895000000000  0.5206785000000000  0.5426759999999999   T   T   T
  0.4666534999999999  0.5493255000000000  0.6123805000000000   T   T   T
  0.6459920000000000  0.6256600000000000  0.5246830000000000   T   T   T
  0.5949709999999999  0.6069610000000000  0.3979055000000000   T   T   T
  0.4451935000000000  0.5892000000000001  0.4223045000000000   T   T   T
  0.7276615000000000  0.4106180000000000  0.5446164999999999   T   T   T
  0.7305200000000001  0.5948375000000000  0.4320720000000000   T   T   T
  0.8260814999999999  0.6413140000000001  0.5043059999999999   T   T   T
  0.5867150000000000  0.6151030000000001  0.6589015000000000   T   T   T
  0.6765620000000000  0.4920730000000000  0.6338644999999999   T   T   T
  0.6253425000000000  0.5352845000000001  0.7521590000000000   T   T   T
  0.5367735000000000  0.4569454999999999  0.6776315000000001   T   T   T
  0.6292260000000000  0.3590220000000000  0.6634295000000000   T   T   T
  0.6669225000000000  0.2838320000000000  0.5538610000000000   T   T   T
  0.5791085000000000  0.3857455000000000  0.5375380000000000   T   T   T
  0.5000000000000000  0.5000000000000000  0.5000000000000000   F   F   F
