Cluster Au
  1.00000 
    20.0000000000000000  0.0000000000000000  0.0000000000000000 
     0.0000000000000000 20.0000000000000000  0.0000000000000000 
     0.0000000000000000  0.0000000000000000 20.0000000000000000 
  Au
  21
Selective dynamics
Direct
  0.5065600000000000  0.6117315000000000  0.5752020000000000   T   T   T
  0.5027809999999999  0.6207460000000000  0.4195030000000000   T   T   T
  0.4118990000000000  0.6937430000000000  0.5316635000000000   T   T   T
  0.3173780000000000  0.7560570000000000  0.6035895000000000   T   T   T
  0.4328915000000000  0.4526490000000000  0.2962260000000000   T   T   T
  0.3960370000000000  0.4332850000000000  0.4391475000000000   T   T   T
  0.3146205000000000  0.7428969999999999  0.4490645000000000   T   T   T
  0.3670365000000000  0.6504934999999999  0.3643080000000000   T   T   T
  0.5183040000000000  0.3759340000000000  0.3759130000000000   T   T   T
  0.3086080000000000  0.5159435000000000  0.4934904999999999   T   T   T
  0.3012535000000000  0.4518310000000000  0.3371765000000000   T   T   T
  0.3922615000000000  0.2869345000000000  0.4076315000000000   T   T   T
  0.3380240000000000  0.3497275000000000  0.2723265000000000   T   T   T
  0.4554785000000000  0.2894450000000000  0.2907835000000000   T   T   T
  0.6562235000000001  0.7176195000000000  0.5462770000000000   T   T   T
  0.6415810000000000  0.5295350000000000  0.3699560000000000   T   T   T
  0.4950265000000000  0.2894580000000000  0.4862325000000000   T   T   T
  0.5795745000000000  0.7338890000000000  0.4157405000000000   T   T   T
  0.5199374999999999  0.5427575000000000  0.3179700000000000   T   T   T
  0.6743375000000000  0.6475950000000000  0.4377835000000000   T   T   T
  0.5000000000000000  0.5000000000000000  0.5000000000000000   F   F   F
