Cluster Au
  1.00000 
    20.0000000000000000  0.0000000000000000  0.0000000000000000 
     0.0000000000000000 20.0000000000000000  0.0000000000000000 
     0.0000000000000000  0.0000000000000000 20.0000000000000000 
  Au
  12
Selective dynamics
Direct
  0.3716760000000000  0.6635625000000001  0.5073100000000000   T   T   T
  0.4507885000000000  0.5382530000000000  0.3033935000000000   T   T   T
  0.6194400000000000  0.6667315000000000  0.4636425000000000   T   T   T
  0.6875964999999999  0.6881235000000000  0.3669615000000000   T   T   T
  0.7179255000000000  0.5626005000000001  0.3986355000000000   T   T   T
  0.5067300000000000  0.6606025000000000  0.5329965000000000   T   T   T
  0.4040025000000000  0.6718460000000001  0.2812240000000000   T   T   T
  0.5377375000000000  0.7335865000000000  0.3769475000000000   T   T   T
  0.4114935000000000  0.7300855000000001  0.3989945000000000   T   T   T
  0.4360674999999999  0.7184125000000000  0.6234425000000000   T   T   T
  0.4073555000000000  0.5448075000000000  0.5876540000000000   T   T   T
  0.5000000000000000  0.5000000000000000  0.5000000000000000   F   F   F
