Cluster Au
  1.00000 
    20.0000000000000000  0.0000000000000000  0.0000000000000000 
     0.0000000000000000 20.0000000000000000  0.0000000000000000 
     0.0000000000000000  0.0000000000000000 20.0000000000000000 
  Au
  12
Selective dynamics
Direct
  0.4285059999999999  0.5738974999999999  0.5864080000000000   T   T   T
  0.5227805000000000  0.6366275000000000  0.4860270000000000   T   T   T
  0.4782700000000000  0.6349310000000000  0.2770590000000000   T   T   T
  0.6337220000000000  0.6640020000000000  0.6578295000000000   T   T   T
  0.5808145000000000  0.5682535000000000  0.5860120000000000   T   T   T
  0.5854425000000000  0.6189450000000000  0.3623000000000000   T   T   T
  0.4445380000000000  0.5675640000000000  0.3914195000000000   T   T   T
  0.5017490000000000  0.6453295000000000  0.6578850000000001   T   T   T
  0.4436805000000000  0.7278089999999999  0.5519445000000001   T   T   T
  0.3992610000000000  0.6811255000000001  0.3617875000000000   T   T   T
  0.3702075000000000  0.6152720000000000  0.4806735000000000   T   T   T
  0.5000000000000000  0.5000000000000000  0.5000000000000000   F   F   F
