Cluster Au
1.0
20.0  0.0  0.0
0.0  20.0  0.0
0.0  0.0  20.0
Au
20
Selective dynamics
Direct
0.50581651 0.50395312 0.37736344 T T T
0.64150736 0.56607553 0.54753190 T T T
0.35752753 0.37740539 0.43850442 T T T
0.56454665 0.53826417 0.28388716 T T T
0.35458463 0.37801842 0.29070323 T T T
0.53061151 0.61593195 0.55732061 T T T
0.32391759 0.30910754 0.57655471 T T T
0.30186162 0.27282632 0.45244042 T T T
0.42844389 0.62167032 0.62287365 T T T
0.45368904 0.28320900 0.49782723 T T T
0.29563153 0.27560864 0.27692241 T T T
0.25198905 0.26517582 0.69359901 T T T
0.38534508 0.25564371 0.67181162 T T T
0.74614039 0.57653596 0.62981228 T T T
0.65824275 0.68136609 0.58948982 T T T
0.45332790 0.47101072 0.26249320 T T T
0.42427075 0.41600084 0.52967169 T T T
0.53048232 0.33081747 0.41063179 T T T
0.52235624 0.34716773 0.62831828 T T T
0.50000000 0.50000000 0.50000000 F F F
