Cluster Au
1.0
20.0  0.0  0.0
0.0  20.0  0.0
0.0  0.0  20.0
Au
20
Selective dynamics
Direct
0.31561043 0.51183564 0.60116296 T T T
0.37685152 0.60799422 0.36187027 T T T
0.25066542 0.64823849 0.57152713 T T T
0.52532339 0.54702894 0.61725448 T T T
0.46568710 0.47434506 0.68570111 T T T
0.42741452 0.61502022 0.64036676 T T T
0.45526225 0.62045658 0.50343747 T T T
0.40757009 0.72125003 0.40064682 T T T
0.50739289 0.39166402 0.60270046 T T T
0.39320753 0.36016919 0.60892522 T T T
0.42678990 0.72638527 0.68356278 T T T
0.41049625 0.73430442 0.51555128 T T T
0.38977358 0.73968135 0.27977961 T T T
0.25880518 0.63150357 0.42922757 T T T
0.67663630 0.70532650 0.58290673 T T T
0.39023868 0.38705820 0.72888351 T T T
0.61696732 0.53380428 0.53453088 T T T
0.45859791 0.30119449 0.68951807 T T T
0.56576776 0.61278201 0.44214971 T T T
0.50000000 0.50000000 0.50000000 F F F
