Cluster Au
1.0
20.0  0.0  0.0
0.0  20.0  0.0
0.0  0.0  20.0
Au
20
Selective dynamics
Direct
0.32006609 0.53576042 0.53376853 T T T
0.39342265 0.56578448 0.67778946 T T T
0.52184278 0.57108147 0.63984249 T T T
0.43461092 0.70780103 0.54815797 T T T
0.43827926 0.71070578 0.72755034 T T T
0.48934373 0.60667451 0.74937448 T T T
0.63940165 0.43136884 0.46872484 T T T
0.69036290 0.41966654 0.60331194 T T T
0.52262130 0.60994060 0.44703769 T T T
0.51608199 0.54975511 0.26806699 T T T
0.33904217 0.53064097 0.33768820 T T T
0.25390653 0.52847746 0.42698553 T T T
0.50337370 0.45059248 0.62219864 T T T
0.26055268 0.63647443 0.52730884 T T T
0.28196481 0.70631331 0.37312163 T T T
0.39076481 0.51031841 0.44629242 T T T
0.42726112 0.63665916 0.34026564 T T T
0.57219088 0.69145378 0.37376860 T T T
0.62029121 0.62856048 0.51503098 T T T
0.50000000 0.50000000 0.50000000 F F F
