Cluster Au
1.0
20.0  0.0  0.0
0.0  20.0  0.0
0.0  0.0  20.0
Au
20
Selective dynamics
Direct
0.48005779 0.49654572 0.38127801 T T T
0.49753526 0.58675241 0.30867036 T T T
0.58802843 0.57304074 0.48030325 T T T
0.41636283 0.52371959 0.25191438 T T T
0.53422955 0.64764574 0.56026734 T T T
0.34998329 0.59240941 0.57901587 T T T
0.43174629 0.64225885 0.50391537 T T T
0.29193555 0.65084437 0.37250286 T T T
0.61853885 0.64423847 0.67026800 T T T
0.30234157 0.54508612 0.67462865 T T T
0.30759469 0.49250198 0.52751578 T T T
0.27685640 0.50606504 0.39899002 T T T
0.42483926 0.39317050 0.47501604 T T T
0.46671139 0.41312459 0.60051840 T T T
0.47424458 0.68625071 0.36673540 T T T
0.49955101 0.74246594 0.47805046 T T T
0.52040346 0.64054279 0.73625979 T T T
0.69307023 0.65200088 0.31609866 T T T
0.33882486 0.32716920 0.35246403 T T T
0.50000000 0.50000000 0.50000000 F F F
