Cluster Au
1.0
20.0  0.0  0.0
0.0  20.0  0.0
0.0  0.0  20.0
Au
20
Selective dynamics
Direct
0.66166022 0.46256635 0.58573103 T T T
0.67840909 0.47579490 0.45014601 T T T
0.31547540 0.60826642 0.57494237 T T T
0.72237020 0.50260619 0.67777027 T T T
0.67507693 0.37469201 0.71504442 T T T
0.65640970 0.36084856 0.52500281 T T T
0.27998075 0.49899016 0.60617305 T T T
0.60711690 0.50190220 0.36285814 T T T
0.54034113 0.61219254 0.49609645 T T T
0.42654145 0.63730355 0.52804973 T T T
0.50555792 0.53293732 0.61851471 T T T
0.55847623 0.63080560 0.65068818 T T T
0.51995153 0.46047816 0.71066357 T T T
0.53015101 0.41407247 0.59276500 T T T
0.52216605 0.40202567 0.39858652 T T T
0.29252682 0.57374140 0.46593879 T T T
0.33357716 0.59982803 0.29296637 T T T
0.69681944 0.61709481 0.66038503 T T T
0.30608294 0.69116571 0.71318132 T T T
0.50000000 0.50000000 0.50000000 F F F
