Cluster Au
1.0
20.0  0.0  0.0
0.0  20.0  0.0
0.0  0.0  20.0
Au
20
Selective dynamics
Direct
0.60483998 0.43438060 0.33126777 T T T
0.40236891 0.43923564 0.63256095 T T T
0.30939645 0.51127872 0.44622789 T T T
0.62295794 0.31594334 0.35684593 T T T
0.39641344 0.39632109 0.46394304 T T T
0.29686694 0.50741758 0.63187025 T T T
0.38673155 0.57587253 0.58826601 T T T
0.27738566 0.60161131 0.55841018 T T T
0.30646733 0.62570389 0.71460647 T T T
0.35090783 0.42010900 0.35544752 T T T
0.25170891 0.37636248 0.46225797 T T T
0.44777742 0.46164614 0.74658170 T T T
0.48350577 0.31951230 0.42790775 T T T
0.33132982 0.27946697 0.45608874 T T T
0.55500050 0.52454719 0.39909144 T T T
0.50113836 0.65173854 0.46971723 T T T
0.65879924 0.56509354 0.47081480 T T T
0.68984535 0.51946886 0.67994152 T T T
0.38384384 0.70443875 0.68085737 T T T
0.50000000 0.50000000 0.50000000 F F F
