Cluster Au
1.0
20.0  0.0  0.0
0.0  20.0  0.0
0.0  0.0  20.0
Au
20
Selective dynamics
Direct
0.37360409 0.58429720 0.60013463 T T T
0.48595697 0.45842582 0.36471778 T T T
0.33666803 0.47214454 0.44199092 T T T
0.30774143 0.48989352 0.57006784 T T T
0.58016255 0.38666691 0.35748562 T T T
0.74115338 0.25592004 0.28860679 T T T
0.26934535 0.35786072 0.35577262 T T T
0.26793253 0.50367608 0.34191647 T T T
0.50819131 0.49658996 0.70749822 T T T
0.72210624 0.45011388 0.65004178 T T T
0.72190837 0.54523088 0.57627885 T T T
0.60455836 0.56302884 0.55021059 T T T
0.62242782 0.60486010 0.39187928 T T T
0.68691870 0.68637456 0.29256565 T T T
0.56265025 0.36361376 0.53441956 T T T
0.30747661 0.35508478 0.46695941 T T T
0.47992357 0.31823686 0.25803218 T T T
0.47188397 0.32895031 0.38074849 T T T
0.40338239 0.31656743 0.53358084 T T T
0.50000000 0.50000000 0.50000000 F F F
