Cluster Au
1.0
20.0  0.0  0.0
0.0  20.0  0.0
0.0  0.0  20.0
Au
20
Selective dynamics
Direct
0.43478213 0.47115038 0.71769578 T T T
0.56874611 0.52968306 0.66026122 T T T
0.55053475 0.42099513 0.71339966 T T T
0.60214789 0.42924489 0.55585123 T T T
0.61332229 0.50000929 0.42757626 T T T
0.46627566 0.33824984 0.67258667 T T T
0.40934431 0.50809315 0.60372890 T T T
0.33308337 0.31665144 0.66053527 T T T
0.66614965 0.52159793 0.59525846 T T T
0.69105372 0.35071619 0.57955073 T T T
0.53447337 0.39613336 0.45867518 T T T
0.57599137 0.31363583 0.55830235 T T T
0.63877907 0.25688500 0.67870048 T T T
0.66240644 0.39344701 0.71597718 T T T
0.57454716 0.60394725 0.48483376 T T T
0.52494767 0.63913368 0.38353507 T T T
0.47316701 0.64162927 0.52811343 T T T
0.72536254 0.64766301 0.39075019 T T T
0.68962996 0.59063784 0.68981391 T T T
0.50000000 0.50000000 0.50000000 F F F
