Cluster Au
1.0
20.0  0.0  0.0
0.0  20.0  0.0
0.0  0.0  20.0
Au
20
Selective dynamics
Direct
0.43957074 0.42095305 0.33833764 T T T
0.54544409 0.48337850 0.31382410 T T T
0.50591510 0.41050879 0.58015229 T T T
0.49361232 0.51989571 0.62938797 T T T
0.52198719 0.34929733 0.39329518 T T T
0.39308954 0.63191193 0.65237186 T T T
0.49350803 0.46291931 0.73185623 T T T
0.70968398 0.42376708 0.48017086 T T T
0.49543524 0.57506012 0.40170389 T T T
0.36973200 0.59053413 0.41230530 T T T
0.32557170 0.60205988 0.26250349 T T T
0.48362823 0.73765439 0.29721821 T T T
0.61692105 0.58500570 0.39005985 T T T
0.66072345 0.49556594 0.26126284 T T T
0.69081604 0.32589988 0.41548854 T T T
0.70935390 0.32661665 0.28472628 T T T
0.39757256 0.52542468 0.31333441 T T T
0.45827578 0.68609071 0.41325142 T T T
0.59544980 0.68051844 0.45093612 T T T
0.50000000 0.50000000 0.50000000 F F F
