Cluster Au
1.0
20.0  0.0  0.0
0.0  20.0  0.0
0.0  0.0  20.0
Au
20
Selective dynamics
Direct
0.38965620 0.43107496 0.55648895 T T T
0.54053415 0.48981174 0.61953030 T T T
0.49083178 0.35664015 0.42669297 T T T
0.57704472 0.62938457 0.51020051 T T T
0.33288883 0.47357828 0.67405374 T T T
0.54155662 0.29633992 0.53345666 T T T
0.60022818 0.37561516 0.39209954 T T T
0.46625526 0.31932582 0.31785621 T T T
0.41570259 0.30288364 0.50677866 T T T
0.38901826 0.31750208 0.65619224 T T T
0.25641378 0.40790466 0.53215868 T T T
0.50081380 0.45923915 0.73799943 T T T
0.60474093 0.33706792 0.27126589 T T T
0.37189773 0.36215703 0.39724211 T T T
0.61209523 0.39993689 0.53433021 T T T
0.61041082 0.41679313 0.70667304 T T T
0.70435511 0.25653386 0.71778117 T T T
0.51581265 0.35319173 0.63527707 T T T
0.60972218 0.68160008 0.34432794 T T T
0.50000000 0.50000000 0.50000000 F F F
