Cluster Au
1.0
20.0  0.0  0.0
0.0  20.0  0.0
0.0  0.0  20.0
Au
20
Selective dynamics
Direct
0.56260751 0.31392660 0.45205989 T T T
0.58403269 0.36382732 0.34328289 T T T
0.55129356 0.27614663 0.60310013 T T T
0.70755950 0.37614711 0.41907664 T T T
0.58325530 0.68638430 0.50303377 T T T
0.65924745 0.64843949 0.58431768 T T T
0.59329873 0.67459877 0.38736605 T T T
0.48572499 0.51226529 0.72232522 T T T
0.48303629 0.40603669 0.60361930 T T T
0.46703908 0.26654861 0.40277017 T T T
0.34171329 0.34082857 0.38924062 T T T
0.32245995 0.29404977 0.27432909 T T T
0.31630175 0.28427864 0.48902354 T T T
0.50013816 0.30236556 0.26284469 T T T
0.53915762 0.52618376 0.26085617 T T T
0.48775946 0.55964846 0.60508804 T T T
0.36504639 0.33649890 0.70936140 T T T
0.62342460 0.46419058 0.43657795 T T T
0.64295807 0.46002368 0.28783064 T T T
0.50000000 0.50000000 0.50000000 F F F
