Cluster Au
1.0
20.0  0.0  0.0
0.0  20.0  0.0
0.0  0.0  20.0
Au
20
Selective dynamics
Direct
0.56860487 0.49032691 0.39682627 T T T
0.66799649 0.53092493 0.30519263 T T T
0.52441533 0.67225225 0.37512239 T T T
0.68955922 0.45611572 0.47443297 T T T
0.70131504 0.45855186 0.60203828 T T T
0.63863512 0.33421890 0.51526148 T T T
0.57091820 0.36683780 0.35051376 T T T
0.65634702 0.56781859 0.46689296 T T T
0.57310747 0.48947889 0.59757014 T T T
0.45677212 0.45883210 0.62187456 T T T
0.44590360 0.59512151 0.54499926 T T T
0.29520107 0.60458316 0.44781763 T T T
0.27935347 0.40984700 0.44117768 T T T
0.40342419 0.43152094 0.51125733 T T T
0.30526853 0.66119324 0.56722432 T T T
0.51993106 0.56592737 0.67063283 T T T
0.45649579 0.41307962 0.40860317 T T T
0.30018037 0.37470176 0.63583967 T T T
0.63392439 0.63760641 0.55654021 T T T
0.50000000 0.50000000 0.50000000 F F F
