Cluster Au
1.0
20.0  0.0  0.0
0.0  20.0  0.0
0.0  0.0  20.0
Au
20
Selective dynamics
Direct
0.50982592 0.41480403 0.32502158 T T T
0.44124065 0.53689577 0.61306064 T T T
0.71460315 0.34622412 0.25377598 T T T
0.54535979 0.25707438 0.39888667 T T T
0.42632022 0.31812907 0.51011119 T T T
0.60705864 0.27971233 0.26080466 T T T
0.62311264 0.41250029 0.28514750 T T T
0.43925153 0.29985481 0.65648182 T T T
0.48109599 0.67724193 0.56633001 T T T
0.54251209 0.47831360 0.62537380 T T T
0.62037633 0.28687380 0.48913973 T T T
0.49308397 0.29836492 0.27992406 T T T
0.39032264 0.46039458 0.38782064 T T T
0.33586408 0.48606755 0.52486964 T T T
0.31347619 0.38287922 0.44904390 T T T
0.36281063 0.43951133 0.26017257 T T T
0.56615141 0.40000138 0.51632310 T T T
0.65024094 0.49023731 0.67595182 T T T
0.60273561 0.50051966 0.36382481 T T T
0.50000000 0.50000000 0.50000000 F F F
