Cluster Au
1.0
20.0  0.0  0.0
0.0  20.0  0.0
0.0  0.0  20.0
Au
20
Selective dynamics
Direct
0.35646656 0.38129659 0.41757622 T T T
0.56471557 0.37567052 0.66144689 T T T
0.67843998 0.40854626 0.71019528 T T T
0.65921458 0.45817814 0.58337716 T T T
0.34014091 0.28502724 0.48954190 T T T
0.41888141 0.37825300 0.32036001 T T T
0.33603047 0.27959075 0.67627684 T T T
0.59509635 0.51355537 0.66818294 T T T
0.54072620 0.57115700 0.31170822 T T T
0.48447266 0.60246852 0.60940042 T T T
0.42905258 0.35015956 0.54065937 T T T
0.37772684 0.48755321 0.50049318 T T T
0.45562516 0.63509860 0.45092993 T T T
0.49316868 0.39662806 0.42784642 T T T
0.70839304 0.46301734 0.46156043 T T T
0.65317093 0.39572051 0.36317283 T T T
0.66997008 0.35254031 0.52366741 T T T
0.60423989 0.27580410 0.61041129 T T T
0.45198029 0.69520586 0.34892869 T T T
0.50000000 0.50000000 0.50000000 F F F
