Cluster Au
1.0
20.0  0.0  0.0
0.0  20.0  0.0
0.0  0.0  20.0
Au
20
Selective dynamics
Direct
0.54873097 0.42848545 0.65078704 T T T
0.41801464 0.44224161 0.61612280 T T T
0.47329647 0.35891682 0.70591983 T T T
0.26040512 0.43046999 0.70583575 T T T
0.41278963 0.50185883 0.71830147 T T T
0.36076476 0.63092950 0.60416851 T T T
0.38933071 0.65887881 0.48265666 T T T
0.34123621 0.54551720 0.47469737 T T T
0.61328839 0.37778681 0.52439204 T T T
0.54858276 0.31538983 0.62025375 T T T
0.43230989 0.33767332 0.55570271 T T T
0.61374481 0.55805153 0.61219618 T T T
0.60291255 0.54761564 0.46548990 T T T
0.28805342 0.71139602 0.51110977 T T T
0.52874188 0.64406355 0.61332240 T T T
0.67955370 0.46550517 0.58128911 T T T
0.36427316 0.46654825 0.26896855 T T T
0.40430573 0.61445000 0.32480613 T T T
0.51582264 0.54096680 0.30923249 T T T
0.50000000 0.50000000 0.50000000 F F F
