Cluster Au
1.0
20.0  0.0  0.0
0.0  20.0  0.0
0.0  0.0  20.0
Au
20
Selective dynamics
Direct
0.47142609 0.50704049 0.31941882 T T T
0.51476945 0.30093704 0.50930066 T T T
0.35104554 0.51987984 0.29261837 T T T
0.50597490 0.66541579 0.48833308 T T T
0.56200774 0.56944428 0.36326339 T T T
0.37242625 0.57537091 0.40117896 T T T
0.27651922 0.54029776 0.45810591 T T T
0.26956663 0.60567223 0.31203971 T T T
0.66145011 0.62037029 0.30973812 T T T
0.50809734 0.63231567 0.64480795 T T T
0.36058596 0.65263537 0.74860608 T T T
0.42208632 0.41621604 0.43803504 T T T
0.47799931 0.31097459 0.39312488 T T T
0.61628102 0.67460665 0.53891961 T T T
0.60985171 0.56977921 0.68229355 T T T
0.50925873 0.37735816 0.64732797 T T T
0.37867838 0.36924411 0.53580904 T T T
0.44881854 0.63941840 0.33142178 T T T
0.54683213 0.72366888 0.34470822 T T T
0.50000000 0.50000000 0.50000000 F F F
