Cluster Au
1.0
20.0  0.0  0.0
0.0  20.0  0.0
0.0  0.0  20.0
Au
20
Selective dynamics
Direct
0.51151987 0.49089564 0.30820231 T T T
0.39516073 0.44627622 0.50247973 T T T
0.49934625 0.49338943 0.68839998 T T T
0.49818071 0.30359087 0.66902651 T T T
0.46291031 0.38210292 0.58678734 T T T
0.32558705 0.40577703 0.39758259 T T T
0.58851040 0.54987655 0.64050219 T T T
0.39547236 0.49247135 0.63093598 T T T
0.46765071 0.60708844 0.69562748 T T T
0.48753790 0.63984940 0.39951805 T T T
0.61355740 0.59257061 0.33221525 T T T
0.46581632 0.67147573 0.26051874 T T T
0.54610432 0.71005964 0.47668554 T T T
0.41659362 0.52081351 0.41282252 T T T
0.69824924 0.59479575 0.63817079 T T T
0.33951928 0.44814070 0.28686360 T T T
0.44574122 0.32627665 0.31755515 T T T
0.27055867 0.41839581 0.50121185 T T T
0.32993041 0.59124905 0.59111643 T T T
0.50000000 0.50000000 0.50000000 F F F
