Cluster Au
1.0
20.0  0.0  0.0
0.0  20.0  0.0
0.0  0.0  20.0
Au
20
Selective dynamics
Direct
0.45563224 0.54209159 0.35125403 T T T
0.52531385 0.61717470 0.48931365 T T T
0.59419376 0.41849290 0.65852348 T T T
0.42196210 0.56609039 0.55454498 T T T
0.49803399 0.53875381 0.64843133 T T T
0.39644671 0.47671513 0.45049631 T T T
0.31842214 0.55169397 0.38614661 T T T
0.49009493 0.41196533 0.71186741 T T T
0.37491832 0.59548039 0.71576256 T T T
0.40350059 0.66263474 0.43373409 T T T
0.40624348 0.67964449 0.58789613 T T T
0.26909126 0.63251610 0.68690253 T T T
0.26050847 0.51561693 0.59043719 T T T
0.25505618 0.51704289 0.71187223 T T T
0.39185253 0.45455590 0.63863471 T T T
0.45239761 0.37939556 0.35189711 T T T
0.38036792 0.31160488 0.28181635 T T T
0.30986051 0.41253354 0.38795810 T T T
0.32398784 0.37725503 0.50704485 T T T
0.50000000 0.50000000 0.50000000 F F F
