Cluster Au
1.0
20.0  0.0  0.0
0.0  20.0  0.0
0.0  0.0  20.0
Au
20
Selective dynamics
Direct
0.49050650 0.72279888 0.49024055 T T T
0.71179437 0.52521984 0.57229428 T T T
0.66262220 0.37526287 0.61323643 T T T
0.51415550 0.38161691 0.66822947 T T T
0.71729028 0.45903536 0.67693802 T T T
0.59114468 0.28492808 0.59976745 T T T
0.71699962 0.26819076 0.72240902 T T T
0.54458604 0.26392524 0.71349497 T T T
0.57423060 0.46796425 0.60836243 T T T
0.44140435 0.40229645 0.46167078 T T T
0.52646430 0.39890433 0.28406317 T T T
0.34251971 0.46312819 0.46632559 T T T
0.42176422 0.28155204 0.44693344 T T T
0.35989545 0.55330565 0.62394034 T T T
0.46318086 0.49488324 0.62431978 T T T
0.31900019 0.66654062 0.62617484 T T T
0.36569711 0.53182358 0.32789288 T T T
0.26615702 0.62741758 0.43853015 T T T
0.31480762 0.72017678 0.36935119 T T T
0.50000000 0.50000000 0.50000000 F F F
