Cluster Au
1.0
20.0  0.0  0.0
0.0  20.0  0.0
0.0  0.0  20.0
Au
20
Selective dynamics
Direct
0.47282257 0.68546423 0.61627674 T T T
0.45593645 0.64001725 0.47946590 T T T
0.31380367 0.40179769 0.52261884 T T T
0.39972019 0.73530949 0.43915963 T T T
0.32597884 0.65438571 0.31974284 T T T
0.48902941 0.51760346 0.34955989 T T T
0.32970834 0.58579305 0.47564432 T T T
0.60937036 0.63103565 0.71677235 T T T
0.66503416 0.47150452 0.74014226 T T T
0.37632886 0.48994496 0.57011955 T T T
0.67006941 0.57757690 0.55263612 T T T
0.55178337 0.61940340 0.33702360 T T T
0.42189307 0.42975099 0.40099016 T T T
0.65862212 0.68393718 0.42499479 T T T
0.56772696 0.59250717 0.45290918 T T T
0.47990990 0.54115136 0.60699209 T T T
0.42546660 0.34852033 0.65938261 T T T
0.40487298 0.51094532 0.69073735 T T T
0.67428859 0.47908324 0.61804191 T T T
0.50000000 0.50000000 0.50000000 F F F
