Cluster Au
1.0
20.0  0.0  0.0
0.0  20.0  0.0
0.0  0.0  20.0
Au
20
Selective dynamics
Direct
0.66611362 0.58002265 0.63237202 T T T
0.69650966 0.52444149 0.42953812 T T T
0.63367021 0.42431919 0.58336602 T T T
0.54577669 0.28454814 0.50877949 T T T
0.62420406 0.67013336 0.55687508 T T T
0.29079744 0.45692422 0.56356634 T T T
0.28896844 0.43321549 0.42255986 T T T
0.42594816 0.60907855 0.39103246 T T T
0.54215209 0.71079794 0.48143020 T T T
0.67270229 0.73114052 0.64730924 T T T
0.64288702 0.37524890 0.42105919 T T T
0.57658270 0.58356338 0.45333524 T T T
0.67716000 0.52851370 0.74276348 T T T
0.31999355 0.70453605 0.53142945 T T T
0.34821448 0.35299399 0.54739158 T T T
0.69551242 0.33134800 0.62760821 T T T
0.56872433 0.36018372 0.65419624 T T T
0.46852843 0.30350273 0.71055635 T T T
0.44402884 0.36825616 0.61339428 T T T
0.50000000 0.50000000 0.50000000 F F F
