Cluster Au
1.0
20.0  0.0  0.0
0.0  20.0  0.0
0.0  0.0  20.0
Au
20
Selective dynamics
Direct
0.32940024 0.39758732 0.40326146 T T T
0.61610741 0.38165944 0.53282926 T T T
0.63235752 0.37972987 0.32037952 T T T
0.38421184 0.30524698 0.26340204 T T T
0.44072364 0.48168719 0.68908857 T T T
0.58597750 0.58843420 0.38294348 T T T
0.30563576 0.46842744 0.56436767 T T T
0.42646909 0.56703314 0.55965242 T T T
0.59272131 0.48777678 0.30714963 T T T
0.32122662 0.44929853 0.29605105 T T T
0.42946412 0.53700323 0.33761400 T T T
0.44735831 0.35857439 0.42535518 T T T
0.48473793 0.40802801 0.59371838 T T T
0.53968931 0.59929915 0.56722719 T T T
0.70531835 0.70744349 0.52526941 T T T
0.39293145 0.62589667 0.65773409 T T T
0.62238069 0.66980742 0.29552224 T T T
0.40355464 0.34486699 0.54104076 T T T
0.29308031 0.47761760 0.67994935 T T T
0.50000000 0.50000000 0.50000000 F F F
