Cluster Au
1.0
20.0  0.0  0.0
0.0  20.0  0.0
0.0  0.0  20.0
Au
20
Selective dynamics
Direct
0.63745664 0.66015802 0.56660073 T T T
0.35749899 0.39722975 0.59237183 T T T
0.36810328 0.39711552 0.42268417 T T T
0.34317792 0.59797471 0.48042634 T T T
0.61886483 0.72877033 0.72858388 T T T
0.46110484 0.63132340 0.46689020 T T T
0.46987346 0.54597182 0.63178981 T T T
0.60042738 0.42897965 0.36399171 T T T
0.59513187 0.43266679 0.57719285 T T T
0.60477244 0.33931947 0.64945714 T T T
0.69899079 0.26741410 0.50104800 T T T
0.58359445 0.63314175 0.32768842 T T T
0.68721006 0.50566323 0.47587846 T T T
0.53511865 0.53502531 0.28247361 T T T
0.31833377 0.63230002 0.62244227 T T T
0.69807095 0.37177464 0.57394872 T T T
0.46786079 0.36199897 0.54790051 T T T
0.65437612 0.51231957 0.26830421 T T T
0.53431769 0.65405147 0.69245604 T T T
0.50000000 0.50000000 0.50000000 F F F
