Cluster Au
1.0
20.0  0.0  0.0
0.0  20.0  0.0
0.0  0.0  20.0
Au
20
Selective dynamics
Direct
0.47692131 0.52736053 0.33752180 T T T
0.50462568 0.43028276 0.70230369 T T T
0.31063143 0.40047268 0.58386480 T T T
0.30714045 0.33647725 0.74539240 T T T
0.37524642 0.29606909 0.60760863 T T T
0.38702952 0.28492957 0.39844868 T T T
0.39108600 0.44826762 0.71860771 T T T
0.35359723 0.50163096 0.40918875 T T T
0.41269043 0.41249757 0.49230697 T T T
0.55600929 0.57360399 0.43014812 T T T
0.58572383 0.57208521 0.59520744 T T T
0.38696688 0.52151012 0.55133875 T T T
0.49765123 0.33614913 0.45990979 T T T
0.63727148 0.29564743 0.42088372 T T T
0.68942269 0.39315083 0.31223682 T T T
0.66882100 0.25185364 0.52302542 T T T
0.52549046 0.40136771 0.55856106 T T T
0.69703889 0.62073303 0.58570514 T T T
0.50791418 0.67438751 0.62728450 T T T
0.50000000 0.50000000 0.50000000 F F F
