Cluster Au
1.0
20.0  0.0  0.0
0.0  20.0  0.0
0.0  0.0  20.0
Au
20
Selective dynamics
Direct
0.43106552 0.66258996 0.38309842 T T T
0.32482390 0.74346640 0.56504484 T T T
0.32359218 0.74117382 0.44922632 T T T
0.46368876 0.70214273 0.52979510 T T T
0.46235034 0.61866085 0.62251707 T T T
0.46299336 0.59036617 0.74079106 T T T
0.56688385 0.66638587 0.63148587 T T T
0.56804867 0.72984355 0.46881332 T T T
0.41423368 0.73759202 0.27438782 T T T
0.41260989 0.58165925 0.25116587 T T T
0.51827748 0.62152749 0.44812005 T T T
0.40771680 0.41568686 0.51071661 T T T
0.54279369 0.60860684 0.32758707 T T T
0.42297060 0.54623217 0.40120655 T T T
0.63690274 0.60419528 0.41167846 T T T
0.66776786 0.61950498 0.55056932 T T T
0.71077569 0.60936417 0.66768963 T T T
0.32019583 0.49087891 0.39597377 T T T
0.29831162 0.56380045 0.28290911 T T T
0.50000000 0.50000000 0.50000000 F F F
