Cluster Au
1.0
20.0  0.0  0.0
0.0  20.0  0.0
0.0  0.0  20.0
Au
20
Selective dynamics
Direct
0.42494848 0.36201897 0.47697625 T T T
0.54085344 0.51240265 0.68171216 T T T
0.51710200 0.31459884 0.42207862 T T T
0.58933810 0.51581612 0.40886366 T T T
0.59582214 0.34883174 0.32288302 T T T
0.64573204 0.46646195 0.59727478 T T T
0.53206954 0.41357791 0.57053605 T T T
0.49607893 0.59273387 0.59802804 T T T
0.66086599 0.46925561 0.32070899 T T T
0.56902975 0.68158803 0.63520837 T T T
0.68870807 0.26156532 0.32860301 T T T
0.69197493 0.55270779 0.66936852 T T T
0.45591919 0.43002623 0.66955295 T T T
0.29210799 0.57724225 0.64489650 T T T
0.36419313 0.35931675 0.62124834 T T T
0.25598558 0.26754316 0.64030387 T T T
0.35747995 0.47026463 0.73747971 T T T
0.28453013 0.44278254 0.58099867 T T T
0.30822152 0.39958530 0.41006000 T T T
0.50000000 0.50000000 0.50000000 F F F
