Cluster Au
1.0
20.0  0.0  0.0
0.0  20.0  0.0
0.0  0.0  20.0
Au
20
Selective dynamics
Direct
0.39953085 0.43735839 0.45952347 T T T
0.58005846 0.51459355 0.67727989 T T T
0.59623678 0.42779348 0.49713539 T T T
0.58562102 0.39913464 0.67724316 T T T
0.39701829 0.48631066 0.32289912 T T T
0.49309823 0.58303243 0.71217900 T T T
0.66925957 0.58890972 0.66932532 T T T
0.47155982 0.50842399 0.61728774 T T T
0.27940486 0.45992209 0.47600001 T T T
0.37719230 0.44120346 0.66489277 T T T
0.40791648 0.32306549 0.66165253 T T T
0.70306899 0.41252575 0.68925334 T T T
0.28680603 0.36936179 0.69938952 T T T
0.37476852 0.55557000 0.44003934 T T T
0.55801952 0.34212064 0.41575139 T T T
0.44570350 0.33817237 0.29505147 T T T
0.52479484 0.43229974 0.31393397 T T T
0.39846876 0.60275395 0.60610536 T T T
0.25736268 0.47428536 0.35462310 T T T
0.50000000 0.50000000 0.50000000 F F F
