Cluster Au
1.0
20.0  0.0  0.0
0.0  20.0  0.0
0.0  0.0  20.0
Au
20
Selective dynamics
Direct
0.54470036 0.37596232 0.55060515 T T T
0.53610714 0.37096622 0.38076417 T T T
0.43831324 0.53367496 0.26810029 T T T
0.42486589 0.50186756 0.39532233 T T T
0.64014274 0.42191154 0.36412351 T T T
0.47944611 0.27218487 0.52930251 T T T
0.42777047 0.39605683 0.57270043 T T T
0.67445818 0.42234486 0.48390436 T T T
0.72614135 0.53633501 0.44463412 T T T
0.72503016 0.53141754 0.32506067 T T T
0.56250609 0.66012951 0.36753552 T T T
0.38074541 0.30442810 0.62788442 T T T
0.38306460 0.32431752 0.42802929 T T T
0.47314327 0.40262079 0.68061213 T T T
0.36793325 0.46978362 0.49733653 T T T
0.30355384 0.50739123 0.39554338 T T T
0.38062327 0.58498630 0.52297857 T T T
0.32356882 0.35057760 0.52686895 T T T
0.50292655 0.31052199 0.28704241 T T T
0.50000000 0.50000000 0.50000000 F F F
