Cluster Au
1.0
20.0  0.0  0.0
0.0  20.0  0.0
0.0  0.0  20.0
Au
20
Selective dynamics
Direct
0.36251651 0.50333456 0.54150001 T T T
0.40339179 0.61682709 0.56337126 T T T
0.45996307 0.64320093 0.71615341 T T T
0.44476587 0.70367001 0.49779578 T T T
0.42526430 0.29971908 0.59350995 T T T
0.38013674 0.38804837 0.72613193 T T T
0.28195557 0.47333061 0.61992135 T T T
0.42586870 0.54376982 0.42257413 T T T
0.55900655 0.41739351 0.42898351 T T T
0.43991543 0.38641863 0.34138172 T T T
0.60677607 0.48719830 0.34773042 T T T
0.58273420 0.30502048 0.44337837 T T T
0.48507250 0.33388586 0.69738986 T T T
0.47384622 0.37241674 0.50827485 T T T
0.55635521 0.35118559 0.60572625 T T T
0.26090973 0.57294017 0.71263186 T T T
0.55097413 0.46047808 0.65440362 T T T
0.51957331 0.64950928 0.56853853 T T T
0.43897445 0.43236493 0.60527495 T T T
0.50000000 0.50000000 0.50000000 F F F
