Cluster Au
1.0
20.0  0.0  0.0
0.0  20.0  0.0
0.0  0.0  20.0
Au
20
Selective dynamics
Direct
0.33411659 0.64322730 0.49482181 T T T
0.28544810 0.62928187 0.36468392 T T T
0.34204164 0.52119075 0.33710546 T T T
0.68352925 0.62708265 0.53001426 T T T
0.64799386 0.60698663 0.66115565 T T T
0.71972849 0.46164480 0.65081132 T T T
0.73219968 0.56318799 0.74317780 T T T
0.63924848 0.60313101 0.41593657 T T T
0.60964547 0.53224971 0.54757900 T T T
0.33440321 0.50840730 0.53865520 T T T
0.50334833 0.45073056 0.39553239 T T T
0.63125951 0.51232279 0.32840086 T T T
0.34252404 0.68757476 0.60679731 T T T
0.30579125 0.64003134 0.74300390 T T T
0.48387350 0.65160176 0.74533982 T T T
0.48231851 0.67491336 0.61319345 T T T
0.38913090 0.70077428 0.40391098 T T T
0.49376237 0.55478906 0.66256908 T T T
0.51391432 0.63079866 0.46859373 T T T
0.50000000 0.50000000 0.50000000 F F F
