Cluster Au
1.0
20.0  0.0  0.0
0.0  20.0  0.0
0.0  0.0  20.0
Au
20
Selective dynamics
Direct
0.59290613 0.39571483 0.37154521 T T T
0.53538087 0.53314720 0.60481660 T T T
0.56406061 0.72945684 0.61652441 T T T
0.61608540 0.36317613 0.49799173 T T T
0.53500968 0.50223860 0.37505546 T T T
0.41305851 0.66581687 0.41706103 T T T
0.41182082 0.43841805 0.43869731 T T T
0.69549631 0.55032071 0.40898088 T T T
0.60293472 0.44238642 0.58213041 T T T
0.42457360 0.51406883 0.63052927 T T T
0.71671748 0.46109530 0.55380569 T T T
0.59160229 0.69942341 0.39365220 T T T
0.41377140 0.66226282 0.54260451 T T T
0.32514357 0.66920859 0.25899506 T T T
0.31419578 0.66771437 0.47819677 T T T
0.65900085 0.68109518 0.56765324 T T T
0.74895246 0.66673065 0.65220647 T T T
0.38233962 0.55211136 0.43401111 T T T
0.71924881 0.34192160 0.44254906 T T T
0.50000000 0.50000000 0.50000000 F F F
