Cluster Au
1.0
20.0  0.0  0.0
0.0  20.0  0.0
0.0  0.0  20.0
Au
20
Selective dynamics
Direct
0.53042218 0.56273332 0.59478930 T T T
0.50750260 0.57062060 0.39800811 T T T
0.62839815 0.35288892 0.50666197 T T T
0.63226779 0.28484352 0.40857947 T T T
0.64221362 0.52486738 0.67625866 T T T
0.65664886 0.66924606 0.51212020 T T T
0.73793197 0.65359757 0.64759977 T T T
0.43335626 0.58565306 0.66323177 T T T
0.41097814 0.35920231 0.43495261 T T T
0.62077854 0.29806532 0.61136902 T T T
0.71078952 0.33717440 0.68973474 T T T
0.57823691 0.39897273 0.35115273 T T T
0.49618758 0.67539029 0.62068441 T T T
0.64391476 0.73342110 0.62896142 T T T
0.44700496 0.72874440 0.72030037 T T T
0.40182458 0.72240804 0.56845045 T T T
0.38711873 0.54519301 0.42427431 T T T
0.66909421 0.27354972 0.29115813 T T T
0.50120188 0.57821695 0.27500488 T T T
0.50000000 0.50000000 0.50000000 F F F
