Cluster Au
1.0
20.0  0.0  0.0
0.0  20.0  0.0
0.0  0.0  20.0
Au
20
Selective dynamics
Direct
0.50513070 0.50500222 0.35907540 T T T
0.30727810 0.46756696 0.60625730 T T T
0.30360668 0.64426003 0.57251185 T T T
0.31660826 0.64425501 0.71953001 T T T
0.58416973 0.53643747 0.57820926 T T T
0.40247744 0.56277961 0.49331927 T T T
0.33419221 0.42822128 0.43173829 T T T
0.36158558 0.28822793 0.52788819 T T T
0.61354033 0.55259927 0.70959994 T T T
0.69175271 0.59510458 0.57419718 T T T
0.73398493 0.53973116 0.67971792 T T T
0.56263190 0.68400732 0.60411715 T T T
0.49902523 0.49211954 0.64826403 T T T
0.35789638 0.49475176 0.25317215 T T T
0.64286853 0.66864807 0.68758813 T T T
0.60012959 0.50581376 0.43076398 T T T
0.43094677 0.41419464 0.36195646 T T T
0.45721797 0.31706483 0.42465510 T T T
0.49342460 0.26599857 0.59668332 T T T
0.50000000 0.50000000 0.50000000 F F F
