Cluster Au
1.0
20.0  0.0  0.0
0.0  20.0  0.0
0.0  0.0  20.0
Au
20
Selective dynamics
Direct
0.29823352 0.51903861 0.46842893 T T T
0.50681194 0.54982973 0.37824958 T T T
0.29695218 0.52711699 0.64737697 T T T
0.27098399 0.42494159 0.69626642 T T T
0.67697407 0.50274491 0.28881632 T T T
0.60184232 0.31189061 0.28264781 T T T
0.34388579 0.61872028 0.51054361 T T T
0.36322527 0.43020189 0.60981740 T T T
0.47201030 0.36480953 0.56422952 T T T
0.45822725 0.40617119 0.38625762 T T T
0.60630125 0.45423853 0.39949500 T T T
0.34088418 0.48135654 0.36294444 T T T
0.37675580 0.42816785 0.48842548 T T T
0.40502726 0.26719340 0.52186956 T T T
0.53488085 0.46108741 0.29258953 T T T
0.36760915 0.74713764 0.50474745 T T T
0.68559552 0.55056627 0.41808192 T T T
0.71535357 0.29013007 0.46127920 T T T
0.57090673 0.29076982 0.50176030 T T T
0.50000000 0.50000000 0.50000000 F F F
