Cluster Au
1.0
20.0  0.0  0.0
0.0  20.0  0.0
0.0  0.0  20.0
Au
20
Selective dynamics
Direct
0.50094001 0.50009542 0.35604170 T T T
0.46525118 0.61055655 0.68653238 T T T
0.39706428 0.49347586 0.44475057 T T T
0.38427571 0.46208154 0.58156439 T T T
0.34229566 0.59623699 0.43592780 T T T
0.34162778 0.54662747 0.32946668 T T T
0.60753223 0.48460802 0.41132739 T T T
0.59912607 0.61628966 0.28058394 T T T
0.54591169 0.60178612 0.46978402 T T T
0.56196588 0.39348906 0.49801397 T T T
0.55229537 0.34869195 0.36693544 T T T
0.44265115 0.37045977 0.48354849 T T T
0.34046245 0.41709829 0.37387596 T T T
0.30873275 0.31120396 0.33858661 T T T
0.44213833 0.38136953 0.29707789 T T T
0.43250124 0.62069790 0.51134950 T T T
0.56489415 0.35144225 0.62843701 T T T
0.67227092 0.34116406 0.38057503 T T T
0.60143995 0.44207413 0.29819465 T T T
0.50000000 0.50000000 0.50000000 F F F
