Cluster Au
1.0
20.0  0.0  0.0
0.0  20.0  0.0
0.0  0.0  20.0
Au
20
Selective dynamics
Direct
0.47779866 0.53067913 0.65634918 T T T
0.54166099 0.41452578 0.56995434 T T T
0.64383315 0.43324077 0.43355443 T T T
0.53354204 0.34075484 0.42279764 T T T
0.35318437 0.35763568 0.48407432 T T T
0.47592131 0.61615925 0.57366090 T T T
0.68796268 0.36765940 0.62797640 T T T
0.56934330 0.67940970 0.54002506 T T T
0.56637055 0.58229028 0.43310376 T T T
0.60192738 0.56191787 0.55271042 T T T
0.50446228 0.40008781 0.32820495 T T T
0.71254841 0.45051068 0.53535442 T T T
0.31816271 0.60733587 0.59326758 T T T
0.58333566 0.37320601 0.68503847 T T T
0.25740154 0.36957025 0.66004581 T T T
0.56367177 0.61161077 0.66471653 T T T
0.67989910 0.34709302 0.35905632 T T T
0.40631827 0.53949967 0.42675973 T T T
0.59251219 0.33469517 0.26834325 T T T
0.50000000 0.50000000 0.50000000 F F F
