Cluster Au
1.0
20.0  0.0  0.0
0.0  20.0  0.0
0.0  0.0  20.0
Au
20
Selective dynamics
Direct
0.54654276 0.33931710 0.55937503 T T T
0.61079764 0.46806661 0.50346501 T T T
0.41991354 0.33329664 0.74613684 T T T
0.40730673 0.40047299 0.57607268 T T T
0.56965100 0.42877536 0.39198261 T T T
0.52871734 0.62401322 0.32624361 T T T
0.70601432 0.39799768 0.50271023 T T T
0.42537163 0.40266348 0.45330550 T T T
0.62789343 0.50676473 0.68491803 T T T
0.48295253 0.38805763 0.32249864 T T T
0.40415007 0.50846419 0.39501742 T T T
0.42670793 0.60563161 0.45695285 T T T
0.48045386 0.74513428 0.53914936 T T T
0.74452234 0.28069586 0.45097924 T T T
0.58354501 0.59143306 0.51899932 T T T
0.56398932 0.73486147 0.40150653 T T T
0.71970577 0.53208330 0.54559097 T T T
0.60036933 0.40396568 0.73565487 T T T
0.67779676 0.61196674 0.65656327 T T T
0.50000000 0.50000000 0.50000000 F F F
