Cluster Au
1.0
20.0  0.0  0.0
0.0  20.0  0.0
0.0  0.0  20.0
Au
20
Selective dynamics
Direct
0.30709790 0.41733455 0.56620963 T T T
0.39490339 0.60519813 0.53973869 T T T
0.33478580 0.69356863 0.42558243 T T T
0.49883822 0.61829045 0.37486738 T T T
0.46467818 0.74960235 0.28414258 T T T
0.40095869 0.72355070 0.52654929 T T T
0.32284727 0.74525967 0.31073853 T T T
0.34948141 0.62812863 0.31982595 T T T
0.61856665 0.59499299 0.36441792 T T T
0.69564612 0.53961326 0.25312675 T T T
0.71063989 0.56606270 0.43113410 T T T
0.52376227 0.49665141 0.37741539 T T T
0.55316167 0.35282844 0.35401551 T T T
0.66479289 0.27681849 0.27467836 T T T
0.52928807 0.50105376 0.26074603 T T T
0.60203353 0.44062099 0.46089780 T T T
0.51215235 0.47085492 0.61193353 T T T
0.57909791 0.70761367 0.39519739 T T T
0.58344423 0.73920270 0.57160989 T T T
0.50000000 0.50000000 0.50000000 F F F
