Cluster Au
1.0
20.0  0.0  0.0
0.0  20.0  0.0
0.0  0.0  20.0
Au
20
Selective dynamics
Direct
0.45514451 0.55771969 0.38780444 T T T
0.61074966 0.52391946 0.28441968 T T T
0.60242088 0.52072115 0.43681783 T T T
0.48397911 0.42522935 0.67285084 T T T
0.33407306 0.74017462 0.43670391 T T T
0.42134237 0.42150465 0.54345633 T T T
0.51212842 0.34251939 0.48137814 T T T
0.30565070 0.38955974 0.54296056 T T T
0.33147736 0.37279831 0.40326776 T T T
0.33152869 0.37221935 0.25469171 T T T
0.68581965 0.42880343 0.45697323 T T T
0.32495568 0.59930561 0.52979247 T T T
0.25493869 0.56392558 0.67375603 T T T
0.72078239 0.55898139 0.32879269 T T T
0.63594210 0.74012553 0.30339495 T T T
0.36798346 0.54074919 0.65875389 T T T
0.34946232 0.52747190 0.43725357 T T T
0.32993673 0.51125098 0.31401842 T T T
0.43243414 0.34993446 0.33576596 T T T
0.50000000 0.50000000 0.50000000 F F F
