Cluster Au
1.0
20.0  0.0  0.0
0.0  20.0  0.0
0.0  0.0  20.0
Au
20
Selective dynamics
Direct
0.61230735 0.47984600 0.54604729 T T T
0.50158392 0.47856567 0.32274142 T T T
0.60310252 0.46079023 0.42673850 T T T
0.73505197 0.48538494 0.53651695 T T T
0.61601927 0.45504241 0.27640812 T T T
0.70723912 0.38829502 0.30543843 T T T
0.44139612 0.43009225 0.42877965 T T T
0.63851432 0.56923912 0.44987140 T T T
0.53711201 0.39452969 0.59729790 T T T
0.49024113 0.59935279 0.30217748 T T T
0.34847934 0.50327325 0.31424728 T T T
0.53703223 0.41696419 0.71642973 T T T
0.48428090 0.29062196 0.59426210 T T T
0.62075331 0.66957308 0.51812309 T T T
0.46353444 0.57225341 0.41331384 T T T
0.25610732 0.56843727 0.26352477 T T T
0.34166910 0.67586618 0.32350888 T T T
0.61913632 0.57575169 0.27266857 T T T
0.72275166 0.46665006 0.41875646 T T T
0.50000000 0.50000000 0.50000000 F F F
