Cluster Au
1.0
20.0  0.0  0.0
0.0  20.0  0.0
0.0  0.0  20.0
Au
20
Selective dynamics
Direct
0.49493399 0.67454397 0.44993043 T T T
0.50438854 0.69082191 0.57834660 T T T
0.49157462 0.49779316 0.64992278 T T T
0.37433428 0.48178964 0.56938866 T T T
0.56886004 0.58969136 0.65720647 T T T
0.30601057 0.58696247 0.58388899 T T T
0.46642074 0.65320306 0.68915518 T T T
0.68165075 0.66823973 0.40835910 T T T
0.50319161 0.56934156 0.33785500 T T T
0.39613028 0.67698879 0.51447965 T T T
0.51014487 0.40070382 0.43212217 T T T
0.38031894 0.55965973 0.46826349 T T T
0.28930945 0.62167319 0.40737850 T T T
0.36241654 0.70547050 0.29579766 T T T
0.25810108 0.70947299 0.48880277 T T T
0.35048054 0.39794679 0.70227001 T T T
0.50861852 0.38978654 0.57551906 T T T
0.68878844 0.56973721 0.47746459 T T T
0.64724236 0.37344282 0.49824137 T T T
0.50000000 0.50000000 0.50000000 F F F
