Cluster Au
1.0
20.0  0.0  0.0
0.0  20.0  0.0
0.0  0.0  20.0
Au
20
Selective dynamics
Direct
0.52225355 0.47965439 0.30575584 T T T
0.51555355 0.33522321 0.34570866 T T T
0.43450328 0.41407571 0.26026013 T T T
0.62469381 0.42620355 0.32105614 T T T
0.69170569 0.29916024 0.28147610 T T T
0.51701688 0.33568379 0.52601859 T T T
0.39568988 0.42428915 0.45337732 T T T
0.30058363 0.40363360 0.59893089 T T T
0.30434064 0.35884031 0.73641826 T T T
0.30274397 0.33861020 0.49908458 T T T
0.30976152 0.33592570 0.31323146 T T T
0.41921740 0.29451925 0.40298499 T T T
0.40738989 0.33526958 0.56693642 T T T
0.42145270 0.35359922 0.74197336 T T T
0.43754499 0.45254226 0.59729030 T T T
0.51835046 0.52965241 0.71718039 T T T
0.61024257 0.45313056 0.51945453 T T T
0.62320085 0.48603162 0.67291269 T T T
0.71249507 0.55713393 0.68886721 T T T
0.50000000 0.50000000 0.50000000 F F F
