Cluster Au
1.0
20.0  0.0  0.0
0.0  20.0  0.0
0.0  0.0  20.0
Au
20
Selective dynamics
Direct
0.38630556 0.50737085 0.55761771 T T T
0.54336772 0.59936890 0.59493139 T T T
0.54460489 0.60090063 0.71862412 T T T
0.45400493 0.52207766 0.36341693 T T T
0.53522750 0.44528131 0.29366857 T T T
0.74819554 0.52160584 0.28318672 T T T
0.70467232 0.53571982 0.40802265 T T T
0.60202946 0.60676307 0.44541818 T T T
0.47397953 0.67365513 0.47492944 T T T
0.67769578 0.58193287 0.60463195 T T T
0.65726635 0.39693532 0.44600086 T T T
0.67673440 0.49826392 0.69644922 T T T
0.72837414 0.47603435 0.50419229 T T T
0.71174991 0.30335126 0.38519725 T T T
0.46972966 0.68091345 0.67955437 T T T
0.62286342 0.34158914 0.31814022 T T T
0.38694907 0.34383063 0.33734718 T T T
0.51088746 0.32172472 0.36825385 T T T
0.51198575 0.34833958 0.59416686 T T T
0.50000000 0.50000000 0.50000000 F F F
