Cluster Au
1.0
20.0  0.0  0.0
0.0  20.0  0.0
0.0  0.0  20.0
Au
20
Selective dynamics
Direct
0.61037463 0.51368338 0.64219458 T T T
0.41965720 0.42272657 0.63239040 T T T
0.56848483 0.45002808 0.41102761 T T T
0.46558900 0.39146287 0.45045135 T T T
0.59010428 0.27770759 0.45473521 T T T
0.60062340 0.26459625 0.27927922 T T T
0.67271207 0.58152951 0.52360249 T T T
0.40153265 0.30282260 0.40918274 T T T
0.62050061 0.37163697 0.51573069 T T T
0.36714827 0.44419742 0.49146832 T T T
0.60703654 0.30492992 0.61461269 T T T
0.66821335 0.40980488 0.64014690 T T T
0.53425326 0.37393281 0.71556500 T T T
0.31075233 0.39178206 0.40049605 T T T
0.25149200 0.44414237 0.56912916 T T T
0.37007224 0.59185120 0.55534478 T T T
0.45831230 0.60320105 0.40634986 T T T
0.64845070 0.50479296 0.33706852 T T T
0.63337906 0.64133378 0.40342441 T T T
0.50000000 0.50000000 0.50000000 F F F
