Cluster Au
1.0
20.0  0.0  0.0
0.0  20.0  0.0
0.0  0.0  20.0
Au
20
Selective dynamics
Direct
0.41353929 0.64598887 0.40886315 T T T
0.43476370 0.32559471 0.39829885 T T T
0.40289330 0.70688498 0.60341440 T T T
0.30293059 0.62822900 0.50255247 T T T
0.45074291 0.63850503 0.69871074 T T T
0.30284357 0.57419458 0.34188784 T T T
0.43886596 0.54439859 0.28091771 T T T
0.49348072 0.62106678 0.50434101 T T T
0.32710903 0.48917391 0.25797812 T T T
0.61014309 0.61851352 0.55123611 T T T
0.26546380 0.46421696 0.38248022 T T T
0.40192614 0.27385019 0.25623872 T T T
0.51161396 0.44674568 0.25379557 T T T
0.49915602 0.43079874 0.38255974 T T T
0.53617803 0.31172282 0.46502258 T T T
0.33981521 0.69948178 0.70491385 T T T
0.30307797 0.53013084 0.58073327 T T T
0.44268064 0.50807803 0.61213567 T T T
0.66670585 0.66719064 0.45786240 T T T
0.50000000 0.50000000 0.50000000 F F F
