Cluster Au
1.0
20.0  0.0  0.0
0.0  20.0  0.0
0.0  0.0  20.0
Au
20
Selective dynamics
Direct
0.36502369 0.45418175 0.63237749 T T T
0.39074491 0.26034442 0.69117016 T T T
0.42728491 0.59004656 0.63181945 T T T
0.31426796 0.67351843 0.68029181 T T T
0.60218320 0.43838086 0.48130266 T T T
0.29070008 0.47701335 0.72638721 T T T
0.30999527 0.55794873 0.60471631 T T T
0.32893900 0.72054563 0.56745983 T T T
0.34662435 0.69729250 0.38668609 T T T
0.25545829 0.52717090 0.28515301 T T T
0.67083037 0.34282909 0.66616721 T T T
0.57532696 0.45800135 0.37000970 T T T
0.26549062 0.66229321 0.48177805 T T T
0.55013640 0.57587654 0.64989826 T T T
0.44571191 0.70942752 0.66674058 T T T
0.70043048 0.54079895 0.31322725 T T T
0.45025309 0.39236669 0.68995015 T T T
0.41368839 0.39630182 0.53750655 T T T
0.59909035 0.33925429 0.41077802 T T T
0.50000000 0.50000000 0.50000000 F F F
