Cluster Au
1.0
20.0  0.0  0.0
0.0  20.0  0.0
0.0  0.0  20.0
Au
20
Selective dynamics
Direct
0.54530707 0.40403423 0.39447673 T T T
0.57659509 0.60540261 0.44590219 T T T
0.57628133 0.34150036 0.51057681 T T T
0.32527649 0.47157639 0.38385562 T T T
0.33023474 0.48149829 0.52139718 T T T
0.61433928 0.45456236 0.50072896 T T T
0.66812538 0.37451642 0.39953161 T T T
0.50103225 0.57384301 0.26194348 T T T
0.42053720 0.35587500 0.59824281 T T T
0.50971586 0.41742454 0.68600117 T T T
0.41145232 0.26548477 0.68290690 T T T
0.64929499 0.51445799 0.31306725 T T T
0.70154588 0.37817932 0.53875760 T T T
0.68074003 0.49818114 0.70977718 T T T
0.63705253 0.53834975 0.58592332 T T T
0.67715555 0.52856666 0.42501163 T T T
0.67387856 0.69460776 0.52286830 T T T
0.74906712 0.65750787 0.60439835 T T T
0.48185170 0.66239606 0.40506781 T T T
0.50000000 0.50000000 0.50000000 F F F
