Cluster Au
1.0
20.0  0.0  0.0
0.0  20.0  0.0
0.0  0.0  20.0
Au
20
Selective dynamics
Direct
0.54320529 0.62107015 0.63480852 T T T
0.42324756 0.70649215 0.64329484 T T T
0.52325390 0.48363217 0.35020708 T T T
0.53484540 0.50171059 0.61022778 T T T
0.53801735 0.74277636 0.45876226 T T T
0.52824096 0.71890268 0.31739361 T T T
0.46457488 0.66257119 0.41056168 T T T
0.45952328 0.54373438 0.69620886 T T T
0.29840704 0.71940438 0.72279787 T T T
0.35449244 0.71504601 0.51671271 T T T
0.36372255 0.60268061 0.64139264 T T T
0.29774946 0.61229248 0.46011783 T T T
0.25802249 0.54837904 0.60008684 T T T
0.30631074 0.44754619 0.64051797 T T T
0.28356960 0.31006330 0.69578695 T T T
0.42236231 0.71893892 0.27126248 T T T
0.34168061 0.62578343 0.26016878 T T T
0.49157722 0.39300116 0.55595119 T T T
0.53065481 0.25105983 0.59141443 T T T
0.50000000 0.50000000 0.50000000 F F F
