Cluster Au
1.0
20.0  0.0  0.0
0.0  20.0  0.0
0.0  0.0  20.0
Au
20
Selective dynamics
Direct
0.60236640 0.70320173 0.49487882 T T T
0.51772818 0.63784291 0.31367639 T T T
0.42954271 0.65887975 0.44358186 T T T
0.57833688 0.56814107 0.39035526 T T T
0.67807713 0.47301351 0.39930888 T T T
0.51052180 0.37686195 0.51680610 T T T
0.55730000 0.37007504 0.73361324 T T T
0.55948618 0.56471004 0.65073399 T T T
0.64991201 0.59167783 0.50922759 T T T
0.69029763 0.59097687 0.36616322 T T T
0.48069782 0.40637182 0.65193697 T T T
0.32795538 0.72542473 0.32360833 T T T
0.44540087 0.51072555 0.38829732 T T T
0.38602550 0.67018525 0.55107384 T T T
0.45635493 0.58086285 0.72211432 T T T
0.66944875 0.40251579 0.74554348 T T T
0.67269468 0.41259270 0.61704027 T T T
0.69767212 0.68545067 0.56424700 T T T
0.60351254 0.71089917 0.33795977 T T T
0.50000000 0.50000000 0.50000000 F F F
