Cluster Au
1.0
20.0  0.0  0.0
0.0  20.0  0.0
0.0  0.0  20.0
Au
20
Selective dynamics
Direct
0.50047798 0.50799950 0.63170900 T T T
0.65302683 0.50423319 0.50820495 T T T
0.71995917 0.34477580 0.46892268 T T T
0.59669244 0.52632509 0.40861012 T T T
0.73023413 0.34451079 0.34393928 T T T
0.63384673 0.55461047 0.61209555 T T T
0.52546614 0.70124523 0.55280803 T T T
0.69819944 0.33499243 0.59279163 T T T
0.50960846 0.44177057 0.38869802 T T T
0.51780949 0.38364323 0.53315137 T T T
0.68265842 0.50458372 0.32171050 T T T
0.46630834 0.27094897 0.54732141 T T T
0.46191818 0.33058901 0.40556051 T T T
0.35727182 0.25072769 0.50156418 T T T
0.42023338 0.27459601 0.30315196 T T T
0.73271343 0.46740261 0.42751685 T T T
0.41029738 0.43246539 0.45218746 T T T
0.27300631 0.56867273 0.33144447 T T T
0.33928171 0.61385624 0.44104432 T T T
0.50000000 0.50000000 0.50000000 F F F
