Cluster Au
  1.00000 
    20.0000000000000000  0.0000000000000000  0.0000000000000000 
     0.0000000000000000 20.0000000000000000  0.0000000000000000 
     0.0000000000000000  0.0000000000000000 20.0000000000000000 
  Au
  15
Selective dynamics
Direct
  0.8490800000000001  0.3817555000000000  0.6041245000000000   T   T   T
  0.7638290000000000  0.4628940000000000  0.5246385000000000   T   T   T
  0.6114690000000000  0.5971100000000000  0.5919220000000001   T   T   T
  0.7196235000000000  0.5895325000000000  0.4875210000000000   T   T   T
  0.6410510000000000  0.4504065000000000  0.5839434999999999   T   T   T
  0.7418465000000001  0.4261245000000000  0.6889585000000000   T   T   T
  0.7285940000000000  0.6737854999999999  0.6025235000000000   T   T   T
  0.6643260000000000  0.7106090000000000  0.4587975000000000   T   T   T
  0.6370830000000000  0.5037385000000000  0.4447040000000000   T   T   T
  0.8097325000000000  0.2563895000000000  0.6330290000000000   T   T   T
  0.5549134999999999  0.6236015000000000  0.4802380000000001   T   T   T
  0.7158030000000000  0.5522185000000001  0.6551715000000000   T   T   T
  0.5745000000000000  0.3837515000000000  0.4982890000000000   T   T   T
  0.7064465000000000  0.3316805000000000  0.5778055000000000   T   T   T
  0.5000000000000000  0.5000000000000000  0.5000000000000000   F   F   F
