Cluster Au
  1.00000 
    20.0000000000000000  0.0000000000000000  0.0000000000000000 
     0.0000000000000000 20.0000000000000000  0.0000000000000000 
     0.0000000000000000  0.0000000000000000 20.0000000000000000 
  Au
  15
Selective dynamics
Direct
  0.5266450000000000  0.3887040000000000  0.4277525000000000   T   T   T
  0.6088955000000000  0.4988275000000000  0.4212090000000000   T   T   T
  0.6424445000000001  0.6472130000000000  0.6500460000000000   T   T   T
  0.7123809999999999  0.4028665000000000  0.6059895000000000   T   T   T
  0.5394460000000000  0.7109255000000000  0.5643659999999999   T   T   T
  0.6182760000000000  0.6067770000000000  0.5124200000000000   T   T   T
  0.4050915000000000  0.6465590000000000  0.6460790000000001   T   T   T
  0.3851705000000000  0.5368170000000000  0.5672280000000000   T   T   T
  0.5193785000000000  0.6748605000000001  0.7016990000000000   T   T   T
  0.6718525000000000  0.6051445000000000  0.3918855000000000   T   T   T
  0.5122635000000000  0.5825950000000000  0.6055945000000000   T   T   T
  0.6046590000000001  0.4129130000000000  0.5364825000000000   T   T   T
  0.6457765000000000  0.5167860000000000  0.6216825000000000   T   T   T
  0.5671395000000000  0.7097895000000001  0.4374075000000001   T   T   T
  0.5000000000000000  0.5000000000000000  0.5000000000000000   F   F   F
