Cluster Au
  1.00000 
    20.0000000000000000  0.0000000000000000  0.0000000000000000 
     0.0000000000000000 20.0000000000000000  0.0000000000000000 
     0.0000000000000000  0.0000000000000000 20.0000000000000000 
  Au
  15
Selective dynamics
Direct
  0.6256845000000000  0.4605800000000000  0.5007165000000000   T   T   T
  0.6255820000000000  0.5274770000000000  0.6352030000000000   T   T   T
  0.4043245000000000  0.5449515000000000  0.3924540000000000   T   T   T
  0.5363675000000000  0.5731180000000000  0.3960890000000000   T   T   T
  0.6212670000000000  0.3616290000000000  0.4032675000000000   T   T   T
  0.5077849999999999  0.4315275000000000  0.3601905000000000   T   T   T
  0.4512960000000000  0.6736385000000000  0.3129455000000000   T   T   T
  0.3448215000000000  0.6558355000000000  0.4041080000000000   T   T   T
  0.4650005000000000  0.5297370000000000  0.2721675000000000   T   T   T
  0.4048460000000000  0.4108785000000000  0.4348560000000000   T   T   T
  0.3880585000000000  0.2800115000000000  0.3836050000000000   T   T   T
  0.4926015000000000  0.6917435000000001  0.4536825000000000   T   T   T
  0.5888375000000000  0.6017479999999999  0.5160905000000000   T   T   T
  0.6818340000000001  0.6384635000000001  0.5823455000000000   T   T   T
  0.5000000000000000  0.5000000000000000  0.5000000000000000   F   F   F
