Cluster Au
  1.00000 
    20.0000000000000000  0.0000000000000000  0.0000000000000000 
     0.0000000000000000 20.0000000000000000  0.0000000000000000 
     0.0000000000000000  0.0000000000000000 20.0000000000000000 
  Au
  15
Selective dynamics
Direct
  0.4740400000000000  0.3780765000000000  0.5379645000000000   T   T   T
  0.3500280000000000  0.4325110000000000  0.4497315000000001   T   T   T
  0.4492315000000000  0.5359980000000000  0.3781980000000000   T   T   T
  0.5517060000000000  0.4472985000000000  0.6130544999999999   T   T   T
  0.3693930000000000  0.5702050000000000  0.4778730000000000   T   T   T
  0.3131360000000000  0.4851850000000000  0.5684960000000000   T   T   T
  0.4065775000000000  0.4838715000000000  0.6575605000000000   T   T   T
  0.4041979999999999  0.4215215000000000  0.3304955000000000   T   T   T
  0.3422725000000000  0.7491905000000000  0.3641375000000000   T   T   T
  0.3619090000000000  0.7074795000000000  0.5301165000000000   T   T   T
  0.4246615000000000  0.6604215000000000  0.3954420000000000   T   T   T
  0.4862705000000000  0.6446255000000000  0.5107850000000000   T   T   T
  0.5262860000000000  0.5607240000000000  0.6679785000000000   T   T   T
  0.4114600000000000  0.6150420000000001  0.6182525000000000   T   T   T
  0.5000000000000000  0.5000000000000000  0.5000000000000000   F   F   F
