Au 
 1.0000000000000000
    20.0000000000000000    0.0000000000000000    0.0000000000000000
     0.0000000000000000   20.0000000000000000    0.0000000000000000
     0.0000000000000000    0.0000000000000000   20.0000000000000000
 Au 
  20
Selective dynamics
Direct
  0.6323324498016474  0.5797273986365845  0.6286377305895798   T   T   T
  0.7260188944806024  0.6172643155226978  0.3104196510136952   T   T   T
  0.3166045557980804  0.7427460241845369  0.2505674732859571   T   T   T
  0.6568790961809121  0.7127006447714037  0.3808102754043756   T   T   T
  0.6255924296480401  0.6909550500209836  0.5163765151481009   T   T   T
  0.4510697497047422  0.5442489869634919  0.5946956252446040   T   T   T
  0.5352916969696644  0.6852000922293069  0.3567534475183707   T   T   T
  0.7240669133043858  0.4779842108243735  0.6579090372220096   T   T   T
  0.3091194620247348  0.5067013586688479  0.3263336572753157   T   T   T
  0.6290746224802484  0.2555685303196236  0.6574885232685590   T   T   T
  0.7146126263370718  0.6221477391466375  0.5416786541335287   T   T   T
  0.2659376665904722  0.2655404558750192  0.4101279789057752   T   T   T
  0.3485551201550978  0.5941953891887088  0.5767645176213728   T   T   T
  0.5798928000259705  0.4155094325222898  0.3972623162085767   T   T   T
  0.3542160872918310  0.4562380014791478  0.4497471302138923   T   T   T
  0.3208090660668881  0.6966950024662828  0.6220298009379035   T   T   T
  0.3342833517212183  0.2629284730645291  0.5031669798221085   T   T   T
  0.3698081906925026  0.5385513853744449  0.2334717277189999   T   T   T
  0.7060112385880752  0.3436831056804384  0.6101386723310764   T   T   T
  0.5000000000000000  0.5000000000000000  0.5000000000000000   F   F   F
