Cluster Au
  1.00000 
    20.0000000000000000  0.0000000000000000  0.0000000000000000 
     0.0000000000000000 20.0000000000000000  0.0000000000000000 
     0.0000000000000000  0.0000000000000000 20.0000000000000000 
  Au
  17
Selective dynamics
Direct
  0.3001270000000000  0.3530270000000000  0.3784930000000000   T   T   T
  0.3585090000000000  0.5097349999999999  0.5234915000000000   T   T   T
  0.4085230000000000  0.3978965000000000  0.4631025000000000   T   T   T
  0.3998205000000000  0.4170740000000001  0.3252545000000000   T   T   T
  0.5710420000000000  0.5377370000000000  0.3823465000000000   T   T   T
  0.3080995000000000  0.6104010000000000  0.4490475000000000   T   T   T
  0.6146000000000000  0.5725525000000000  0.2628400000000000   T   T   T
  0.4960880000000000  0.6296065000000000  0.3140215000000000   T   T   T
  0.5042380000000000  0.4904435000000000  0.2697825000000000   T   T   T
  0.4168945000000000  0.4350195000000000  0.1945885000000000   T   T   T
  0.3232730000000000  0.7268589999999999  0.4984980000000000   T   T   T
  0.4120220000000000  0.5451435000000000  0.3899480000000000   T   T   T
  0.4202340000000001  0.6927515000000000  0.4085505000000000   T   T   T
  0.4440225000000000  0.4298689999999999  0.5946500000000000   T   T   T
  0.6294655000000000  0.5366069999999999  0.5036320000000000   T   T   T
  0.2863755000000000  0.4836560000000000  0.4122715000000000   T   T   T
  0.5000000000000000  0.5000000000000000  0.5000000000000000   F   F   F
