Cluster Au
  1.00000 
    20.0000000000000000  0.0000000000000000  0.0000000000000000 
     0.0000000000000000 20.0000000000000000  0.0000000000000000 
     0.0000000000000000  0.0000000000000000 20.0000000000000000 
  Au
  11
Selective dynamics
Direct
  0.5535015000000000  0.4034985000000000  0.6008454999999999   T   T   T
  0.6011970000000000  0.3990680000000000  0.4582625000000000   T   T   T
  0.4292155000000000  0.6299650000000000  0.6118835000000000   T   T   T
  0.5413855000000000  0.5010730000000000  0.3680325000000000   T   T   T
  0.6829080000000001  0.4734395000000000  0.3554005000000000   T   T   T
  0.6842140000000000  0.5659050000000000  0.2703805000000000   T   T   T
  0.6357579999999999  0.5669520000000000  0.4406424999999999   T   T   T
  0.5574110000000000  0.6183004999999999  0.5381870000000000   T   T   T
  0.5028750000000000  0.5252540000000000  0.6292265000000000   T   T   T
  0.6340320000000000  0.5149575000000000  0.5644850000000000   T   T   T
  0.5000000000000000  0.5000000000000000  0.5000000000000000   F   F   F
