Cluster Au
  1.00000 
    20.0000000000000000  0.0000000000000000  0.0000000000000000 
     0.0000000000000000 20.0000000000000000  0.0000000000000000 
     0.0000000000000000  0.0000000000000000 20.0000000000000000 
  Au
  11
Selective dynamics
Direct
  0.5202315000000000  0.5348505000000000  0.6375569999999999   T   T   T
  0.5443450000000001  0.6222005000000000  0.4319815000000000   T   T   T
  0.4433340000000000  0.6209245000000000  0.5808145000000000   T   T   T
  0.3471300000000000  0.6941260000000000  0.6366005000000000   T   T   T
  0.4146865000000000  0.5771845000000000  0.4351020000000000   T   T   T
  0.3305095000000000  0.6713515000000000  0.5083465000000000   T   T   T
  0.3863740000000000  0.5727314999999999  0.2949620000000000   T   T   T
  0.4903520000000000  0.5261220000000000  0.3548225000000000   T   T   T
  0.5852380000000000  0.7316350000000000  0.3710330000000000   T   T   T
  0.3078725000000000  0.6484805000000000  0.3822920000000000   T   T   T
  0.5000000000000000  0.5000000000000000  0.5000000000000000   F   F   F
