Cluster Au
  1.00000 
    20.0000000000000000  0.0000000000000000  0.0000000000000000 
     0.0000000000000000 20.0000000000000000  0.0000000000000000 
     0.0000000000000000  0.0000000000000000 20.0000000000000000 
  Au
  11
Selective dynamics
Direct
  0.4145970000000000  0.5765629999999999  0.5868390000000000   T   T   T
  0.5259595000000000  0.5965295000000000  0.4179720000000000   T   T   T
  0.5134430000000000  0.7402314999999999  0.6205675000000000   T   T   T
  0.6395260000000000  0.7066475000000000  0.6005350000000000   T   T   T
  0.3183670000000000  0.5491245000000000  0.6621595000000000   T   T   T
  0.4187645000000000  0.6926655000000000  0.5272570000000000   T   T   T
  0.4229690000000000  0.5175155000000000  0.7046900000000000   T   T   T
  0.5514340000000000  0.6053585000000000  0.5510835000000001   T   T   T
  0.5686490000000000  0.7143430000000001  0.4905280000000000   T   T   T
  0.4103680000000000  0.6827510000000000  0.3939980000000000   T   T   T
  0.5000000000000000  0.5000000000000000  0.5000000000000000   F   F   F
