Cluster Au
  1.00000 
    20.0000000000000000  0.0000000000000000  0.0000000000000000 
     0.0000000000000000 20.0000000000000000  0.0000000000000000 
     0.0000000000000000  0.0000000000000000 20.0000000000000000 
  Au
  11
Selective dynamics
Direct
  0.5373110000000000  0.6057740000000000  0.3232675000000000   T   T   T
  0.4915269999999999  0.7224140000000000  0.3755765000000000   T   T   T
  0.4039250000000000  0.7169125000000001  0.4796635000000000   T   T   T
  0.3884110000000000  0.6326760000000000  0.3018625000000000   T   T   T
  0.3852575000000000  0.5153150000000000  0.3631915000000000   T   T   T
  0.5789190000000000  0.7169290000000000  0.2848850000000000   T   T   T
  0.6237580000000000  0.5300095000000000  0.2521075000000000   T   T   T
  0.6414855000000000  0.4440905000000000  0.3509835000000000   T   T   T
  0.3413890000000000  0.4918034999999999  0.4775535000000000   T   T   T
  0.5265605000000000  0.4266975000000001  0.5963805000000000   T   T   T
  0.5000000000000000  0.5000000000000000  0.5000000000000000   F   F   F
