Cluster Au
  1.00000 
    20.0000000000000000  0.0000000000000000  0.0000000000000000 
     0.0000000000000000 20.0000000000000000  0.0000000000000000 
     0.0000000000000000  0.0000000000000000 20.0000000000000000 
  Au
  11
Selective dynamics
Direct
  0.3744690000000000  0.6973090000000000  0.5957980000000000   T   T   T
  0.3084720000000000  0.5912120000000000  0.6692435000000000   T   T   T
  0.4532005000000000  0.6024370000000000  0.6836274999999999   T   T   T
  0.2590935000000000  0.7031354999999999  0.6570975000000000   T   T   T
  0.5890125000000000  0.5927600000000000  0.4838125000000000   T   T   T
  0.5779190000000000  0.5647880000000000  0.6286650000000000   T   T   T
  0.3814290000000000  0.5431885000000001  0.5563560000000000   T   T   T
  0.4836290000000000  0.6381070000000000  0.5452575000000001   T   T   T
  0.3605795000000000  0.4698965000000001  0.6641190000000000   T   T   T
  0.4896874999999999  0.4675660000000000  0.6288475000000000   T   T   T
  0.5000000000000000  0.5000000000000000  0.5000000000000000   F   F   F
