Cluster Au
  1.00000 
    20.0000000000000000  0.0000000000000000  0.0000000000000000 
     0.0000000000000000 20.0000000000000000  0.0000000000000000 
     0.0000000000000000  0.0000000000000000 20.0000000000000000 
  Au
  11
Selective dynamics
Direct
  0.4769110000000000  0.4627635000000000  0.6371819999999999   T   T   T
  0.6188235000000000  0.4825320000000000  0.4457505000000000   T   T   T
  0.4202925000000000  0.5687344999999999  0.5693254999999999   T   T   T
  0.4338645000000000  0.3923930000000000  0.4288525000000000   T   T   T
  0.6351804999999999  0.3641650000000000  0.6128420000000000   T   T   T
  0.3933920000000000  0.4185190000000000  0.5522945000000000   T   T   T
  0.4619585000000000  0.2676490000000000  0.4836850000000000   T   T   T
  0.3824660000000000  0.3560255000000000  0.6776105000000000   T   T   T
  0.5606035000000000  0.3676415000000000  0.5001120000000000   T   T   T
  0.4947655000000000  0.3240920000000000  0.6012820000000000   T   T   T
  0.5000000000000000  0.5000000000000000  0.5000000000000000   F   F   F
