Cluster Au
  1.00000 
    20.0000000000000000  0.0000000000000000  0.0000000000000000 
     0.0000000000000000 20.0000000000000000  0.0000000000000000 
     0.0000000000000000  0.0000000000000000 20.0000000000000000 
  Au
  11
Selective dynamics
Direct
  0.5803914999999999  0.3604740000000000  0.5851465000000000   T   T   T
  0.6234335000000000  0.4811865000000000  0.5303685000000000   T   T   T
  0.4523095000000000  0.4164570000000000  0.6029575000000000   T   T   T
  0.5179430000000000  0.3554285000000000  0.7048639999999999   T   T   T
  0.5510115000000000  0.2743050000000000  0.4008595000000000   T   T   T
  0.5529280000000000  0.4005075000000000  0.3397765000000000   T   T   T
  0.6063045000000000  0.5159800000000000  0.3913870000000000   T   T   T
  0.5434370000000001  0.5237255000000001  0.2791175000000000   T   T   T
  0.6274305000000000  0.3734840000000000  0.4547465000000000   T   T   T
  0.4810475000000000  0.3639945000000000  0.4712570000000000   T   T   T
  0.5000000000000000  0.5000000000000000  0.5000000000000000   F   F   F
