Cluster Au
  1.00000 
    20.0000000000000000  0.0000000000000000  0.0000000000000000 
     0.0000000000000000 20.0000000000000000  0.0000000000000000 
     0.0000000000000000  0.0000000000000000 20.0000000000000000 
  Au
  11
Selective dynamics
Direct
  0.5565625000000000  0.4093645000000000  0.5980670000000000   T   T   T
  0.4356390000000000  0.5151709999999999  0.6167625000000000   T   T   T
  0.5203295000000000  0.3707265000000000  0.4730090000000000   T   T   T
  0.3602720000000000  0.5387530000000000  0.5068760000000000   T   T   T
  0.3738385000000000  0.6624250000000000  0.5390825000000000   T   T   T
  0.3508900000000000  0.7274990000000000  0.6419440000000000   T   T   T
  0.3983190000000000  0.4828810000000000  0.3805700000000000   T   T   T
  0.2978015000000000  0.5620670000000000  0.3867785000000000   T   T   T
  0.5118035000000000  0.4400415000000000  0.7085144999999999   T   T   T
  0.2446665000000000  0.2754575000000000  0.6236485000000001   T   T   T
  0.5000000000000000  0.5000000000000000  0.5000000000000000   F   F   F
