Cluster Au
  1.00000 
    20.0000000000000000  0.0000000000000000  0.0000000000000000 
     0.0000000000000000 20.0000000000000000  0.0000000000000000 
     0.0000000000000000  0.0000000000000000 20.0000000000000000 
  Au
  19
Selective dynamics
Direct
  0.5927600000000000  0.4452175000000000  0.3493830000000000   T   T   T
  0.3429185000000000  0.5418695000000000  0.3877215000000000   T   T   T
  0.6103475000000000  0.3586910000000000  0.4445945000000000   T   T   T
  0.5888770000000000  0.4160865000000000  0.5717530000000000   T   T   T
  0.3362090000000000  0.3723960000000000  0.5217300000000000   T   T   T
  0.3415135000000000  0.3964490000000000  0.7033050000000001   T   T   T
  0.2888635000000000  0.4564335000000000  0.6151995000000000   T   T   T
  0.3636310000000000  0.4087775000000000  0.3957300000000000   T   T   T
  0.3925110000000000  0.2798440000000000  0.4323870000000000   T   T   T
  0.3828465000000000  0.5643970000000000  0.5692255000000001   T   T   T
  0.4914770000000000  0.6274949999999999  0.5404095000000000   T   T   T
  0.6687554999999999  0.5439695000000000  0.5502040000000000   T   T   T
  0.4655005000000000  0.4990154999999999  0.3640960000000000   T   T   T
  0.5001504999999999  0.6035505000000000  0.2781280000000000   T   T   T
  0.6388855000000000  0.6040225000000000  0.4517040000000000   T   T   T
  0.7389040000000000  0.3329185000000000  0.4921945000000000   T   T   T
  0.4808645000000000  0.5650605000000000  0.7234935000000000   T   T   T
  0.5092290000000000  0.6877500000000001  0.6594300000000000   T   T   T
  0.5000000000000000  0.5000000000000000  0.5000000000000000   F   F   F
