Cluster Au
  1.00000 
    20.0000000000000000  0.0000000000000000  0.0000000000000000 
     0.0000000000000000 20.0000000000000000  0.0000000000000000 
     0.0000000000000000  0.0000000000000000 20.0000000000000000 
  Au
  19
Selective dynamics
Direct
  0.4835950000000001  0.5674705000000000  0.3839890000000000   T   T   T
  0.3181220000000000  0.3899840000000000  0.3741790000000000   T   T   T
  0.4470795000000000  0.3697910000000000  0.4081770000000000   T   T   T
  0.4898760000000000  0.3577300000000000  0.5335340000000001   T   T   T
  0.3983240000000000  0.3471345000000000  0.6304689999999999   T   T   T
  0.3720730000000000  0.4403335000000000  0.4973660000000000   T   T   T
  0.3167590000000000  0.5563020000000000  0.4824070000000000   T   T   T
  0.2544975000000000  0.3635725000000000  0.4837425000000000   T   T   T
  0.3077170000000000  0.3056680000000000  0.7465960000000000   T   T   T
  0.2567240000000000  0.3337425000000000  0.6218125000000000   T   T   T
  0.4409915000000000  0.2581310000000000  0.7340250000000000   T   T   T
  0.5272865000000000  0.3334245000000000  0.6621135000000000   T   T   T
  0.4179590000000000  0.5475695000000000  0.2595010000000000   T   T   T
  0.3610360000000000  0.5095090000000000  0.3726740000000000   T   T   T
  0.5835215000000000  0.4458750000000000  0.5827325000000000   T   T   T
  0.6032960000000001  0.5745479999999999  0.5899600000000000   T   T   T
  0.5831025000000001  0.6007530000000000  0.4697520000000000   T   T   T
  0.6955695000000001  0.6660380000000000  0.6074930000000001   T   T   T
  0.5000000000000000  0.5000000000000000  0.5000000000000000   F   F   F
