Cluster Au
  1.00000 
    20.0000000000000000  0.0000000000000000  0.0000000000000000 
     0.0000000000000000 20.0000000000000000  0.0000000000000000 
     0.0000000000000000  0.0000000000000000 20.0000000000000000 
  Au
  19
Selective dynamics
Direct
  0.4023095000000000  0.6795895000000000  0.6324935000000000   T   T   T
  0.3285080000000000  0.5021050000000000  0.6955495000000000   T   T   T
  0.4436175000000001  0.6437305000000000  0.3606480000000000   T   T   T
  0.2912640000000000  0.6917850000000000  0.5587945000000001   T   T   T
  0.4260015000000000  0.4120500000000000  0.4435705000000000   T   T   T
  0.5450640000000000  0.6043045000000000  0.4377210000000000   T   T   T
  0.5539805000000000  0.5989220000000001  0.3053045000000000   T   T   T
  0.3691855000000000  0.4582060000000000  0.5650220000000000   T   T   T
  0.4669395000000000  0.4935245000000000  0.3549060000000000   T   T   T
  0.3902300000000000  0.3217895000000000  0.5322560000000001   T   T   T
  0.5404600000000001  0.6109260000000000  0.5820955000000000   T   T   T
  0.5132730000000000  0.6479779999999999  0.7063220000000000   T   T   T
  0.4208745000000000  0.6382274999999999  0.5093350000000000   T   T   T
  0.3605890000000000  0.5451505000000000  0.4318520000000000   T   T   T
  0.4425015000000000  0.5494730000000000  0.6390465000000000   T   T   T
  0.3065370000000000  0.6605950000000000  0.4164600000000000   T   T   T
  0.1934975000000000  0.6212875000000000  0.4969150000000000   T   T   T
  0.2930715000000000  0.5660390000000000  0.5741094999999999   T   T   T
  0.5000000000000000  0.5000000000000000  0.5000000000000000   F   F   F
