Cluster Au
  1.00000 
    20.0000000000000000  0.0000000000000000  0.0000000000000000 
     0.0000000000000000 20.0000000000000000  0.0000000000000000 
     0.0000000000000000  0.0000000000000000 20.0000000000000000 
  Au
  19
Selective dynamics
Direct
  0.6701190000000000  0.4448765000000000  0.4518385000000000   T   T   T
  0.5800470000000000  0.3034520000000000  0.6505445000000000   T   T   T
  0.5638620000000001  0.4737510000000000  0.3719990000000000   T   T   T
  0.5020550000000000  0.2800280000000000  0.5457900000000000   T   T   T
  0.6217320000000000  0.4816125000000001  0.6194320000000000   T   T   T
  0.4736325000000000  0.3817185000000000  0.4509320000000000   T   T   T
  0.4956490000000000  0.3999310000000000  0.5932459999999999   T   T   T
  0.6882180000000000  0.3541995000000000  0.5735740000000000   T   T   T
  0.5316045000000000  0.5725385000000001  0.5994630000000000   T   T   T
  0.5945005000000000  0.3282670000000000  0.4444695000000000   T   T   T
  0.7445929999999999  0.5125710000000000  0.5702404999999999   T   T   T
  0.6888635000000000  0.3914320000000000  0.6999950000000000   T   T   T
  0.4236530000000000  0.2603140000000000  0.4349590000000000   T   T   T
  0.7266305000000000  0.3095960000000000  0.4465804999999999   T   T   T
  0.8632854999999999  0.2999770000000000  0.4840340000000000   T   T   T
  0.7916055000000000  0.4119255000000000  0.5106025000000000   T   T   T
  0.4105885000000000  0.5112750000000000  0.6213940000000000   T   T   T
  0.6167285000000000  0.5602020000000001  0.4761150000000000   T   T   T
  0.5000000000000000  0.5000000000000000  0.5000000000000000   F   F   F
